30
Lattice="11.17 0.0 0.0 6.390869406386416 9.161096453510035 0.0 6.390869406386416 3.3339676811445487 8.532897967958938" Properties=species:S:1:pos:R:3 wyckoff_letters="_JSON [\"a\", \"f\", \"f\", \"f\", \"f\", \"f\", \"c\", \"f\", \"f\", \"f\", \"f\", \"f\", \"f\", \"f\", \"f\", \"c\", \"f\", \"f\", \"f\", \"f\", \"f\", \"b\", \"f\", \"f\", \"f\", \"f\", \"f\", \"f\", \"f\", \"f\"]" formula=CsHf8CI20 source="C Cs Hf I | 28 |" target="A18B7C2D C Cs Hf I | CsHf7CI18 | SG 148 R-3 | OX: CN:18;12;15;6;13;14 NN:2.28;4.22;2.98;2.29;3.15;2.89 NP:C-Hf:2.28;C-I:4.05;Hf-Hf:3.06;Hf-I:2.89;I-I:4.04 WP:a:1;b:1;f:6;c:2;f:18 | 11.17 11.17 11.17 55.1 55.1 55.1 | C a 0.00 0.00 0.00 I f 0.26 0.14 0.03 I f 0.59 0.78 0.12 I f 0.88 0.41 0.22 I f 0.03 0.74 0.14 I f 0.53 0.36 0.21 I c 0.21 0.21 0.21 I f 0.86 0.03 0.26 I f 0.21 0.53 0.36 I f 0.22 0.88 0.41 I f 0.64 0.79 0.47 I f 0.36 0.21 0.53 I f 0.78 0.12 0.59 I f 0.79 0.47 0.64 I f 0.14 0.97 0.74 I c 0.79 0.79 0.79 I f 0.47 0.64 0.79 I f 0.97 0.26 0.86 I f 0.12 0.59 0.78 I f 0.41 0.22 0.88 I f 0.74 0.86 0.97 Cs b 0.50 0.50 0.50 Hf f 0.22 0.93 0.05 Hf f 0.95 0.78 0.07 Hf f 0.93 0.05 0.22 Hf f 0.93 0.78 0.22 Hf f 0.07 0.22 0.78 Hf f 0.07 0.95 0.78 Hf f 0.05 0.22 0.93 Hf f 0.78 0.07 0.95" pbc="T T T"
C        0.00000000       0.00000000       0.00000000
I        3.99064780       1.38257253       0.25598694
I       12.34208247       7.54573136       1.02394776
I       13.85584773       4.48952244       1.87723755
I        5.95906508       7.24596685       1.19460572
I        9.56289556       3.99812794       1.79190857
I        5.02986515       2.62396347       1.79190857
I       11.45955213       1.14166449       2.21855347
I        8.03357377       6.05560949       3.07184327
I       10.70162153       9.42869163       3.49848817
I       15.20129545       8.80423101       4.01046204
I        8.75044336       3.69083313       4.52243592
I       13.25011728       3.06637251       5.03440980
I       15.91816504       6.43945465       5.46105470
I       12.49218668      11.35339964       6.31434450
I       18.92187366       9.87110067       6.74098939
I       14.38884325       8.49693620       6.74098939
I       17.99267374       5.24909728       7.33829225
I       10.09589109       8.00554170       6.65566042
I       11.60965635       4.94933278       7.50895021
I       19.96109101      11.11249160       8.27691103
Cs      11.97586941       6.24753207       4.26644898
Hf       8.72045202       8.68651809       0.42664490
Hf      16.04373900       7.37903297       0.59730286
Hf      12.11363474       1.19152771       1.87723755
Hf      16.77896941       7.87912812       1.87723755
Hf       7.17276941       4.61593601       6.65566042
Hf      11.83810407      11.30353642       6.65566042
Hf       7.90799982       5.11603116       7.93559511
Hf      15.23128679       3.80854605       8.10625307
17
Lattice="7.66 0.0 0.0 -3.8299999999999983 6.633754592988801 0.0 0.0 0.0 5.32" Properties=species:S:1:pos:R:3 wyckoff_letters="_JSON [\"b\", \"k\", \"k\", \"k\", \"k\", \"k\", \"k\", \"c\", \"c\", \"k\", \"k\", \"k\", \"d\", \"d\", \"k\", \"k\", \"k\"]" formula=Nb10Si6C source="C Nb Si | 17 |" target="A10B6C C Nb Si | Nb10CSi6 | SG 162 P-31m | OX:-4;+2;+3;+3;-4 CN:30;30;27;36;32 NN:2.26;2.66;2.66;2.55;2.46 NP:C-Nb:2.26;C-Si:3.41;Nb-Nb:2.66;Nb-Si:2.46;Si-Si:3.16 WP:b:1;c:2;d:2;k:6;k:6 | 7.66 7.66 5.32 90.0 90.0 120.0 | C b 0.00 0.00 0.50 Si k 0.40 0.00 0.24 Si k 0.00 0.40 0.24 Si k 0.60 0.60 0.24 Si k 0.40 0.40 0.76 Si k 1.00 0.60 0.76 Si k 0.60 1.00 0.76 Nb c 0.67 0.33 0.00 Nb c 0.33 0.67 0.00 Nb k 0.24 0.24 0.26 Nb k 1.00 0.76 0.26 Nb k 0.76 1.00 0.26 Nb d 0.67 0.33 0.50 Nb d 0.33 0.67 0.50 Nb k 0.24 0.00 0.74 Nb k 0.00 0.24 0.74 Nb k 0.76 0.76 0.74" pbc="T T T"
C        0.00000000       0.00000000       2.66000000
Si       3.06400000       0.00000000       1.27680000
Si      -1.53200000       2.65350184       1.27680000
Si       2.29800000       3.98025276       1.27680000
Si       1.53200000       2.65350184       4.04320000
Si       5.36200000       3.98025276       4.04320000
Si       0.76600000       6.63375459       4.04320000
Nb       3.86830000       2.18913902       0.00000000
Nb      -0.03830000       4.44461558       0.00000000
Nb       0.91920000       1.59210110       1.38320000
Nb       4.74920000       5.04165349       1.38320000
Nb       1.99160000       6.63375459       1.38320000
Nb       3.86830000       2.18913902       2.66000000
Nb      -0.03830000       4.44461558       2.66000000
Nb       1.83840000       0.00000000       3.93680000
Nb      -0.91920000       1.59210110       3.93680000
Nb       2.91080000       5.04165349       3.93680000
64
Lattice="14.13 0.0 0.0 -7.064999999999997 12.23693895547412 0.0 0.0 0.0 9.68" Properties=species:S:1:pos:R:3 wyckoff_letters="_JSON [\"i\", \"i\", \"i\", \"i\", \"i\", \"i\", \"i\", \"i\", \"i\", \"i\", \"i\", \"i\", \"i\", \"i\", \"i\", \"i\", \"i\", \"i\", \"i\", \"i\", \"i\", \"i\", \"i\", \"i\", \"i\", \"i\", \"i\", \"i\", \"i\", \"i\", \"i\", \"i\", \"i\", \"i\", \"i\", \"i\", \"i\", \"i\", \"i\", \"i\", \"i\", \"i\", \"i\", \"i\", \"i\", \"i\", \"i\", \"i\", \"b\", \"b\", \"g\", \"g\", \"g\", \"g\", \"g\", \"g\", \"g\", \"g\", \"g\", \"g\", \"g\", \"g\", \"c\", \"c\"]" formula=Cs3DyIn3B12Se12Br source="B Br Cs Dy In Se | 64 |" target="A12B12C3D3EF B Br Cs Dy In Se | Cs6Dy2In6B24Br2Se24 | SG 182 P6_322 | OX: CN:26;8;11;24;25;24 NN:1.78;3.78;3.76;2.90;2.58;2.02 NP:B-B:1.78;B-Cs:4.96;B-Dy:3.63;B-In:3.42;B-Se:2.01;Br-Br:4.84;Br-Cs:3.78;Cs-In:4.58;Cs-Se:3.76;Dy-In:4.76;Dy-Se:2.90;In-In:4.91;In-Se:2.58;Se-Se:3.63 WP:i:24;b:2;g:6;c:2;g:6;i:24 | 14.13 14.13 9.68 90.0 90.0 120.0 | B i 0.67 0.26 0.11 B i 0.59 0.33 0.11 B i 0.74 0.41 0.11 B i 0.55 0.21 0.22 B i 0.79 0.33 0.22 B i 0.67 0.45 0.22 B i 0.67 0.21 0.28 B i 0.55 0.33 0.28 B i 0.79 0.45 0.28 B i 0.59 0.26 0.39 B i 0.74 0.33 0.39 B i 0.67 0.41 0.39 B i 0.26 0.59 0.61 B i 0.41 0.67 0.61 B i 0.33 0.74 0.61 B i 0.33 0.55 0.72 B i 0.21 0.67 0.72 B i 0.45 0.79 0.72 B i 0.21 0.55 0.78 B i 0.45 0.67 0.78 B i 0.33 0.79 0.78 B i 0.33 0.59 0.89 B i 0.26 0.67 0.89 B i 0.41 0.74 0.89 Se i 0.34 0.51 0.06 Se i 0.17 0.66 0.06 Se i 0.49 0.83 0.06 Se i 0.40 0.08 0.19 Se i 0.92 0.32 0.19 Se i 0.68 0.60 0.19 Se i 0.68 0.08 0.31 Se i 0.40 0.32 0.31 Se i 0.92 0.60 0.31 Se i 0.17 0.51 0.44 Se i 0.49 0.66 0.44 Se i 0.34 0.83 0.44 Se i 0.51 0.17 0.56 Se i 0.83 0.34 0.56 Se i 0.66 0.49 0.56 Se i 0.32 0.40 0.69 Se i 0.08 0.68 0.69 Se i 0.60 0.92 0.69 Se i 0.08 0.40 0.81 Se i 0.60 0.68 0.81 Se i 0.32 0.92 0.81 Se i 0.66 0.17 0.94 Se i 0.51 0.34 0.94 Se i 0.83 0.49 0.94 Br b 0.00 0.00 0.25 Br b 0.00 0.00 0.75 In g 1.00 0.47 0.00 In g 0.53 0.53 0.00 In g 0.47 1.00 0.00 In g 0.53 0.00 0.50 In g 0.47 0.47 0.50 In g 0.00 0.53 0.50 Cs g 0.79 0.00 0.00 Cs g 0.21 0.21 0.00 Cs g 0.00 0.79 0.00 Cs g 1.00 0.21 0.50 Cs g 0.79 0.79 0.50 Cs g 0.21 1.00 0.50 Dy c 0.33 0.67 0.25 Dy c 0.67 0.33 0.75" pbc="T T T"
B        7.63020000       3.18160413       1.06480000
B        6.00525000       4.03818986       1.06480000
B        7.55955000       5.01714497       1.06480000
B        6.28785000       2.56975718       2.12960000
B        8.83125000       4.03818986       2.12960000
B        6.28785000       5.50662253       2.12960000
B        7.98345000       2.56975718       2.71040000
B        5.44005000       4.03818986       2.71040000
B        7.98345000       5.50662253       2.71040000
B        6.49980000       3.18160413       3.77520000
B        8.12475000       4.03818986       3.77520000
B        6.57045000       5.01714497       3.77520000
B       -0.49455000       7.21979398       5.90480000
B        1.05975000       8.19874910       5.90480000
B       -0.56520000       9.05533483       5.90480000
B        0.77715000       6.73031643       6.96960000
B       -1.76625000       8.19874910       6.96960000
B        0.77715000       9.66718177       6.96960000
B       -0.91845000       6.73031643       7.55040000
B        1.62495000       8.19874910       7.55040000
B       -0.91845000       9.66718177       7.55040000
B        0.49455000       7.21979398       8.61520000
B       -1.05975000       8.19874910       8.61520000
B        0.56520000       9.05533483       8.61520000
Se       1.20105000       6.24083887       0.58080000
Se      -2.26080000       8.07637971       0.58080000
Se       1.05975000      10.15665933       0.58080000
Se       5.08680000       0.97895512       1.83920000
Se      10.73880000       3.91582047       1.83920000
Se       5.36940000       7.34216337       1.83920000
Se       9.04320000       0.97895512       3.00080000
Se       3.39120000       3.91582047       3.00080000
Se       8.76060000       7.34216337       3.00080000
Se      -1.20105000       6.24083887       4.25920000
Se       2.26080000       8.07637971       4.25920000
Se      -1.05975000      10.15665933       4.25920000
Se       6.00525000       2.08027962       5.42080000
Se       9.32580000       4.16055924       5.42080000
Se       5.86395000       5.99610009       5.42080000
Se       1.69560000       4.89477558       6.67920000
Se      -3.67380000       8.32111849       6.67920000
Se       1.97820000      11.25798384       6.67920000
Se      -1.69560000       4.89477558       7.84080000
Se       3.67380000       8.32111849       7.84080000
Se      -1.97820000      11.25798384       7.84080000
Se       8.12475000       2.08027962       9.09920000
Se       4.80420000       4.16055924       9.09920000
Se       8.26605000       5.99610009       9.09920000
Br       0.00000000       0.00000000       2.42000000
Br       0.00000000       0.00000000       7.26000000
In      10.80945000       5.75136131       0.00000000
In       3.74445000       6.48557765       0.00000000
In      -0.42390000      12.23693896       0.00000000
In       7.48890000       0.00000000       4.84000000
In       3.32055000       5.75136131       4.84000000
In      -3.74445000       6.48557765       4.84000000
Cs      11.16270000       0.00000000       0.00000000
Cs       1.48365000       2.56975718       0.00000000
Cs      -5.58135000       9.66718177       0.00000000
Cs      12.64635000       2.56975718       4.84000000
Cs       5.58135000       9.66718177       4.84000000
Cs      -4.09770000      12.23693896       4.84000000
Dy      -0.07065000       8.19874910       2.42000000
Dy       7.13565000       4.03818986       7.26000000
19
Lattice="8.43 0.0 0.0 2.8139918233406904 7.946467769907063 0.0 5.696695995524321 4.026026684706618 6.897453433594708" Properties=species:S:1:pos:R:3 wyckoff_letters="_JSON [\"b\", \"c\", \"c\", \"a\", \"c\", \"c\", \"c\", \"c\", \"c\", \"c\", \"c\", \"c\", \"c\", \"a\", \"c\", \"c\", \"b\", \"c\", \"c\"]" formula=Ce6Cu3(Sb4Rh)2 source="Ce Cu Rh Sb | 20 |" target="A8B6C3D3 Ce Cu Rh Sb | Ce6Cu3Rh3Sb8 | SG 5 C2 | OX:+3;+3;+2;+1;+1;+1;-3 CN:22;22;22;22;22;22;22;23 NN:2.95;2.94;2.98;2.69;2.72;2.74;2.78;2.69 NP:Ce-Ce:4.57;Ce-Cu:2.98;Ce-Rh:2.95;Ce-Sb:3.25;Cu-Cu:4.55;Cu-Rh:4.54;Cu-Sb:2.69;Rh-Rh:4.55;Rh-Sb:2.74;Sb-Sb:3.51 WP:a:1;b:1;c:4;b:1;c:2;a:1;c:2;c:8 | 8.43 8.43 9.81 54.5 54.5 70.5 | Cu b 0.38 0.62 0.25 Cu c 0.75 0.25 0.25 Cu c 0.75 0.25 0.75 Rh a 0.88 0.12 0.25 Rh c 0.12 0.88 0.75 Sb c 0.00 0.66 0.09 Sb c 0.50 0.00 0.25 Sb c 0.50 0.33 0.41 Sb c 0.83 0.83 0.42 Sb c 0.17 0.17 0.58 Sb c 0.67 0.50 0.59 Sb c 1.00 0.50 0.75 Sb c 0.34 1.00 0.91 Ce a 0.62 0.38 0.00 Ce c 0.13 0.38 0.12 Ce c 0.87 0.63 0.37 Ce b 0.13 0.87 0.50 Ce c 0.37 0.13 0.63 Ce c 0.62 0.87 0.88" pbc="T T T"
Cu       6.37224893       5.93331669       1.72436336
Cu       8.45017195       2.99312361       1.72436336
Cu      11.29851995       5.00613696       5.17309008
Rh       9.18025302       1.96008280       1.72436336
Rh       7.76043480      10.01241165       5.17309008
Sb       2.36993724       5.60701113       0.62077081
Sb       5.63917400       1.00650667       1.72436336
Sb       7.47926266       4.27300530       2.82795591
Sb      11.72512553       8.28649946       2.89693044
Sb       5.21556229       3.68599500       4.00052299
Sb      10.41614655       6.34858963       4.06949753
Sb      14.10951791       6.99275390       5.17309008
Sb      10.86418518      11.61015205       6.27668262
Ce       6.29591689       3.01965775       0.00000000
Ce       2.84882041       3.50278095       0.82769441
Ce      11.21469237       6.49590457       2.55205777
Ce       6.39242088       8.92644030       3.44872672
Ce       7.07383741       3.56943762       4.34539566
Ce      12.68786536      10.45633044       6.06975902
72
Lattice="10.11 0.0 0.0 0.0 7.51 0.0 0.0 1.511179858223829 12.307572280352392" Properties=species:S:1:pos:R:3 wyckoff_letters="_JSON [\"e\", \"e\", \"e\", \"e\", \"e\", \"e\", \"e\", \"e\", \"e\", \"e\", \"e\", \"e\", \"e\", \"e\", \"e\", \"e\", \"e\", \"e\", \"e\", \"e\", \"e\", \"e\", \"e\", \"e\", \"e\", \"e\", \"e\", \"e\", \"e\", \"e\", \"e\", \"e\", \"e\", \"e\", \"e\", \"e\", \"e\", \"e\", \"e\", \"e\", \"e\", \"e\", \"e\", \"e\", \"e\", \"e\", \"e\", \"e\", \"e\", \"e\", \"e\", \"e\", \"e\", \"e\", \"e\", \"e\", \"e\", \"e\", \"e\", \"e\", \"e\", \"e\", \"e\", \"e\", \"e\", \"e\", \"e\", \"e\", \"e\", \"e\", \"e\", \"e\"]" formula=SrP2HF14 source="F H P Sr | 68 |" target="A13B2CD F H P Sr | Sr4F52H4P8 | SG 14 P2_1/c | OX:-1;+1;-5;+2 CN:36;40;40;41 NN:1.69;0.99;1.54;2.45 NP:F-F:2.30;F-H:0.98;F-P:1.55;F-Sr:2.45;H-H:3.17;H-P:2.99;H-Sr:3.32;P-P:4.60;P-Sr:4.48 WP:e:52;e:4;e:8;e:4 | 10.11 7.51 12.40 83.0 90.0 90.0 | H e 0.98 0.76 0.18 H e 0.48 0.24 0.32 H e 0.52 0.76 0.68 H e 0.02 0.24 0.82 F e 0.21 0.63 0.00 F e 0.24 0.96 0.02 F e 0.42 0.24 0.04 F e 0.72 0.46 0.07 F e 0.72 0.81 0.07 F e 0.99 0.66 0.08 F e 0.01 0.18 0.09 F e 0.51 0.96 0.11 F e 0.24 0.46 0.14 F e 0.85 0.01 0.15 F e 0.45 0.29 0.17 F e 0.69 0.27 0.19 F e 0.01 0.83 0.20 F e 0.72 0.61 0.23 F e 0.22 0.39 0.27 F e 0.51 0.17 0.30 F e 0.19 0.73 0.31 F e 0.95 0.71 0.33 F e 0.35 0.99 0.35 F e 0.74 0.54 0.36 F e 0.01 0.04 0.39 F e 0.51 0.82 0.41 F e 0.49 0.34 0.42 F e 0.22 0.19 0.43 F e 0.22 0.54 0.43 F e 0.92 0.76 0.46 F e 0.74 0.04 0.48 F e 0.71 0.37 0.50 F e 0.29 0.63 0.50 F e 0.26 0.96 0.52 F e 0.08 0.24 0.54 F e 0.78 0.46 0.57 F e 0.78 0.81 0.57 F e 0.51 0.66 0.58 F e 0.49 0.18 0.59 F e 0.99 0.96 0.61 F e 0.26 0.46 0.64 F e 0.65 0.01 0.65 F e 0.05 0.29 0.67 F e 0.81 0.27 0.69 F e 0.49 0.83 0.70 F e 0.78 0.61 0.73 F e 0.28 0.39 0.77 F e 0.99 0.17 0.80 F e 0.31 0.73 0.81 F e 0.55 0.71 0.83 F e 0.15 0.99 0.85 F e 0.76 0.54 0.86 F e 0.49 0.04 0.89 F e 0.99 0.82 0.91 F e 0.01 0.34 0.92 F e 0.28 0.19 0.93 F e 0.28 0.54 0.93 F e 0.58 0.76 0.96 F e 0.76 0.04 0.98 F e 0.79 0.37 1.00 P e 0.15 0.66 0.00 P e 0.63 0.69 0.15 P e 0.13 0.31 0.35 P e 0.65 0.34 0.50 P e 0.35 0.66 0.50 P e 0.87 0.69 0.65 P e 0.37 0.31 0.85 P e 0.85 0.34 1.00 Sr e 0.35 0.75 0.19 Sr e 0.85 0.25 0.31 Sr e 0.15 0.75 0.69 Sr e 0.65 0.25 0.81" pbc="T T T"
H        9.90780000       5.97961237       2.21536301
H        4.85280000       2.28597755       3.93842313
H        5.25720000       6.73520230       8.36914915
H        0.20220000       3.04156748      10.09220927
F        2.12310000       4.73130000       0.00000000
F        2.42640000       7.23982360       0.24615145
F        4.24620000       1.86284719       0.49230289
F        7.27920000       3.56038259       0.86153006
F        7.27920000       6.18888259       0.86153006
F       10.00890000       5.07749439       0.98460578
F        0.10110000       1.48780619       1.10768151
F        5.15610000       7.37582978       1.35383295
F        2.42640000       3.66616518       1.72306012
F        8.59350000       0.30177698       1.84613584
F        4.54950000       2.43480058       2.09228729
F        6.97590000       2.31482417       2.33843873
F        0.10110000       6.53553597       2.46151446
F        7.27920000       4.92867137       2.83074162
F        2.22420000       3.33691856       3.32304452
F        5.15610000       1.73005396       3.69227168
F        1.92090000       5.95076576       3.81534741
F        9.60450000       5.83078935       4.06149885
F        3.53850000       7.96381295       4.30765030
F        7.48140000       4.59942475       4.43072602
F        0.10110000       0.88976014       4.79995319
F        5.15610000       6.77778374       5.04610463
F        4.95390000       3.18809554       5.16918036
F        2.22420000       2.07670734       5.29225608
F        2.22420000       4.70520734       5.29225608
F        9.30120000       6.40274273       5.66148325
F        7.48140000       1.02576633       5.90763469
F        7.17810000       3.53428993       6.15378614
F        2.93190000       5.48688993       6.15378614
F        2.62860000       7.99541353       6.39993759
F        0.80880000       2.61843712       6.64608903
F        7.88580000       4.31597252       7.01531620
F        7.88580000       6.94447252       7.01531620
F        5.15610000       5.83308432       7.13839192
F        4.95390000       2.24339612       7.26146765
F       10.00890000       8.13141971       7.50761909
F        2.62860000       4.42175511       7.87684626
F        6.57150000       1.05736691       7.99992198
F        0.50550000       3.19039051       8.24607343
F        8.18910000       3.07041410       8.49222487
F        4.95390000       7.29112590       8.61530060
F        7.88580000       5.68426130       8.98452776
F        2.83080000       4.09250849       9.47683066
F       10.00890000       2.48564389       9.84605782
F        3.13410000       6.70635569       9.96913355
F        5.56050000       6.58637928      10.21528499
F        1.51650000       8.71940288      10.46143644
F        7.68360000       5.35501468      10.58451216
F        4.95390000       1.64535007      10.95373933
F       10.00890000       7.53337367      11.19989078
F        0.10110000       3.94368547      11.32296650
F        2.83080000       2.83229727      11.44604222
F        2.83080000       5.46079727      11.44604222
F        5.86380000       7.15833266      11.81526939
F        7.68360000       1.78135626      12.06142083
F        7.98690000       4.28987986      12.30757228
P        1.51650000       4.95660000       0.00000000
P        6.36930000       5.40857698       1.84613584
P        1.31430000       2.85701295       4.30765030
P        6.57150000       3.30898993       6.15378614
P        3.53850000       5.71218993       6.15378614
P        8.79570000       6.16416691       7.99992198
P        3.74070000       3.61260288      10.46143644
P        8.59350000       4.06457986      12.30757228
Sr       3.53850000       5.91962417       2.33843873
Sr       8.59350000       2.34596576       3.81534741
Sr       1.51650000       6.67521410       8.49222487
Sr       6.57150000       3.10155569       9.96913355
11
Lattice="7.34 0.0 0.0 -3.6477888739422557 6.369398427727934 0.0 1.2082455750251717 2.084332992650812 7.712463847965798" Properties=species:S:1:pos:R:3 wyckoff_letters="_JSON [\"j\", \"j\", \"i\", \"i\", \"j\", \"j\", \"h\", \"h\", \"g\", \"g\", \"c\"]" formula=Ce2(TlSe2)3 source="Ce Pm Se Tl | 11 |" target="A6B2C2D Ce Np Se Tl | Ce2NpTl2Se6 | SG 12 C2/m | OX: CN:16;16;14;14;15 NN:2.92;2.91;2.91;2.91;3.34 NP:Ce-Ce:4.24;Ce-Np:4.31;Ce-Se:2.92;Ce-Tl:4.60;Gd-Se:2.91;Gd-Tl:4.60;Se-Se:3.96;Se-Tl:3.34;Tl-Tl:4.20 WP:h:2;c:1;i:2;j:4;g:2 | 7.34 7.34 8.08 81.4 81.4 119.8 | Se j 0.93 0.59 0.20 Se j 0.59 0.93 0.20 Se i 0.28 0.28 0.20 Se i 0.72 0.72 0.80 Se j 0.41 0.07 0.80 Se j 0.07 0.41 0.80 Ce h 0.67 0.33 0.50 Ce h 0.33 0.67 0.50 Tl g 0.83 0.17 0.00 Tl g 0.17 0.83 0.00 Tl c 1.00 1.00 0.50" pbc="T T T"
Se       4.91565368       4.17481167       1.54249277
Se       1.17980546       6.34040714       1.54249277
Se       1.27546823       2.20029816       1.54249277
Se       3.62498847       6.25343326       6.16997108
Se       3.72065124       2.11332428       6.16997108
Se      -0.01519698       4.27891975       6.16997108
Ce       4.31815246       3.14406798       3.85623192
Ce       0.58230424       5.30966344       3.85623192
Tl       5.47207589       1.08279773       0.00000000
Tl      -1.77986477       5.28660070       0.00000000
Tl       4.29633391       7.41156492       3.85623192
15
Lattice="10.65 0.0 0.0 6.76869638479538 6.289860829180401 0.0 4.498115160456056 -3.502794154085512 4.995377174686587" Properties=species:S:1:pos:R:3 wyckoff_letters="_JSON [\"b\", \"b\", \"b\", \"b\", \"b\", \"b\", \"b\", \"b\", \"b\", \"b\", \"b\", \"b\", \"b\", \"a\", \"a\"]" formula=Eu2P3 source="Eu P | 14 |" target="A4B3 Eu P | Eu6P8 | SG 43 Fdd2 | OX:+2;+2;-2 CN:19;20;21 NN:2.95;2.95;2.39 NP:Eu-Eu:3.91;Eu-P:2.95;P-P:2.39 WP:a:2;b:4;b:8 | 10.65 9.24 7.58 83.1 53.6 42.9 | P b 0.67 0.33 0.16 P b 0.43 0.74 0.26 P b 0.84 0.16 0.33 P b 0.92 0.58 0.40 P b 0.09 0.40 0.58 P b 0.51 0.85 0.68 P b 0.58 0.26 0.74 P b 0.99 0.68 0.85 P b 0.85 0.67 0.85 Eu b 0.92 0.42 0.09 Eu b 0.16 0.67 0.33 Eu b 0.58 0.09 0.42 Eu b 0.83 0.33 0.67 Eu a 0.26 0.74 0.74 Eu a 0.51 0.99 0.99" pbc="T T T"
P       10.08886823       1.51520701       0.79926035
P       10.75784527       3.74377053       1.29879807
P       11.51336942      -0.14954434       1.64847447
P       15.52308997       2.24700162       1.99815087
P        6.27488535       0.48432372       2.89731876
P       14.24361024       2.96448168       3.39685648
P       11.26546628      -0.95670386       3.69657911
P       18.96961143       1.29973033       4.24607060
P       17.41092446       1.23683172       4.24607060
Eu      13.04568285       2.32649007       0.44958395
Eu       7.72340458       3.05828468       1.64847447
Eu       8.67539104      -0.90508607       2.09805841
Eu      14.08690696      -0.27121801       3.34690271
Eu      11.10644054       2.06242934       3.69657911
Eu      16.58564343       2.75919601       4.94542340
16
Lattice="3.85 0.0 0.0 -1.9249999999999992 3.3341978045700893 0.0 0.0 0.0 27.52" Properties=species:S:1:pos:R:3 wyckoff_letters="_JSON [\"a\", \"f\", \"f\", \"a\", \"f\", \"f\", \"c\", \"c\", \"f\", \"e\", \"e\", \"f\", \"f\", \"e\", \"e\", \"f\"]" formula=Lu4SeS3 source="Lu S Se | 16 |" target="A4B3C Lu S Se | Lu8S6Se2 | SG 194 P6_3/mmc | OX: CN:26;26;28;29;26 NN:2.72;2.72;2.69;2.89;2.69 NP:Lu-Lu:3.68;Lu-S:2.69;Lu-Se:2.69;S-S:3.85;S-Se:4.05;Se-Se:3.85 WP:e:4;f:4;a:2;f:4;c:2 | 3.85 3.85 27.52 90.0 90.0 120.0 | S a 0.00 0.00 0.00 S f 0.67 0.33 0.12 S f 0.67 0.33 0.38 S a 0.00 0.00 0.50 S f 0.33 0.67 0.62 S f 0.33 0.67 0.88 Se c 0.33 0.67 0.25 Se c 0.67 0.33 0.75 Lu f 0.33 0.67 0.06 Lu e 0.00 0.00 0.18 Lu e 0.00 0.00 0.32 Lu f 0.33 0.67 0.44 Lu f 0.67 0.33 0.56 Lu e 0.00 0.00 0.68 Lu e 0.00 0.00 0.82 Lu f 0.67 0.33 0.94" pbc="T T T"
S        0.00000000       0.00000000       0.00000000
S        1.94425000       1.10028528       3.30240000
S        1.94425000       1.10028528      10.45760000
S        0.00000000       0.00000000      13.76000000
S       -0.01925000       2.23391253      17.06240000
S       -0.01925000       2.23391253      24.21760000
Se      -0.01925000       2.23391253       6.88000000
Se       1.94425000       1.10028528      20.64000000
Lu      -0.01925000       2.23391253       1.65120000
Lu       0.00000000       0.00000000       4.95360000
Lu       0.00000000       0.00000000       8.80640000
Lu      -0.01925000       2.23391253      12.10880000
Lu       1.94425000       1.10028528      15.41120000
Lu       0.00000000       0.00000000      18.71360000
Lu       0.00000000       0.00000000      22.56640000
Lu       1.94425000       1.10028528      25.86880000
8
Lattice="3.76 0.0 0.0 0.0 3.76 0.0 0.0 0.0 8.09" Properties=species:S:1:pos:R:3 wyckoff_letters="_JSON [\"c\", \"c\", \"c\", \"c\", \"b\", \"b\", \"c\", \"c\"]" formula=ErFeSiN source="Ac Fe N Si | 8 |" target="ABCD Er Fe N Si | Er2Fe2N2Si2 | SG 129 P4/nmm | OX: CN:35;28;30;27 NN:2.34;1.79;1.73;1.73 NP:Er-Er:3.52;Er-Fe:3.36;Er-N:2.34;Er-Si:3.02;Fe-Fe:2.66;Fe-N:1.79;Fe-Si:1.73;N-N:3.43;N-Si:1.73;Si-Si:3.71 WP:c:2;b:2;c:2;c:2 | 3.76 3.76 8.09 90.0 90.0 90.0 | N c 0.00 0.50 0.13 N c 0.50 0.00 0.87 Si c 0.00 0.50 0.35 Si c 0.50 0.00 0.65 Fe b 0.00 0.00 0.50 Fe b 0.50 0.50 0.50 Er c 0.50 0.00 0.16 Er c 0.00 0.50 0.84" pbc="T T T"
N        0.00000000       1.88000000       1.05170000
N        1.88000000       0.00000000       7.03830000
Si       0.00000000       1.88000000       2.83150000
Si       1.88000000       0.00000000       5.25850000
Fe       0.00000000       0.00000000       4.04500000
Fe       1.88000000       1.88000000       4.04500000
Er       1.88000000       0.00000000       1.29440000
Er       0.00000000       1.88000000       6.79560000
26
Lattice="7.31 0.0 0.0 5.328760666450518 5.004039344338714 0.0 1.6505597504088856 0.6535028353810539 12.353096233514863" Properties=species:S:1:pos:R:3 wyckoff_letters="_JSON [\"f\", \"f\", \"f\", \"f\", \"f\", \"f\", \"f\", \"f\", \"f\", \"f\", \"f\", \"f\", \"f\", \"f\", \"f\", \"f\", \"f\", \"f\", \"f\", \"f\", \"f\", \"e\", \"f\", \"f\", \"e\", \"f\"]" formula=Cd2Te3O8 source="Cd O Te | 26 |" target="A8B3C2 Cd O Te | Cd4O16Te6 | SG 15 C2/c | OX:+2;-2;+4;+4 CN:30;26;26;26 NN:2.28;1.94;1.93;1.90 NP:Cd-Cd:3.60;Cd-O:2.28;Cd-Te:3.42;O-O:2.56;O-Te:1.90;Te-Te:3.49 WP:f:4;f:16;e:2;f:4 | 7.31 7.31 12.48 82.4 82.4 43.2 | O f 0.72 0.76 0.03 O f 0.98 0.13 0.12 O f 0.99 0.56 0.15 O f 0.17 0.83 0.19 O f 0.17 0.83 0.31 O f 0.44 0.01 0.35 O f 0.87 0.02 0.38 O f 0.24 0.28 0.47 O f 0.76 0.72 0.53 O f 0.13 0.98 0.62 O f 0.56 0.99 0.65 O f 0.83 0.17 0.69 O f 0.83 0.17 0.81 O f 0.01 0.44 0.85 O f 0.02 0.87 0.88 O f 0.28 0.24 0.97 Cd f 0.06 0.35 0.08 Cd f 0.65 0.94 0.42 Cd f 0.35 0.06 0.58 Cd f 0.94 0.65 0.92 Te f 0.67 0.05 0.05 Te e 0.10 0.90 0.25 Te f 0.95 0.33 0.45 Te f 0.05 0.67 0.55 Te e 0.90 0.10 0.75 Te f 0.33 0.95 0.95" pbc="T T T"
O        9.36257490       3.82267499       0.37059289
O        8.05460606       0.72894546       1.48237155
O       10.46858994       2.90028746       1.85296444
O        5.97917771       4.27751819       2.34708828
O        6.17724488       4.35593853       3.82945983
O        3.84738352       0.27876639       4.32358368
O        7.09348792       0.34841186       4.69417657
O        4.02221607       1.70827735       5.80595523
O       10.26710435       3.94926483       6.54714100
O        7.19583250       5.30913032       7.65891966
O       10.44193690       5.37877579       8.02951255
O        8.11207554       1.30160364       8.52363640
O        8.31014271       1.38002399      10.00600795
O        3.82073048       2.75725472      10.50013180
O        6.23471436       4.92859672      10.87072469
O        4.92674552       1.83486719      11.98250335
Cd       2.43571101       1.80369400       0.98824770
Cd      10.45377012       4.97826817       5.18830042
Cd       3.83555030       0.67927401       7.16479582
Cd      11.85360940       3.85384818      11.36484853
Te       5.24666602       0.28287711       0.61765481
Te       5.93952454       4.66701112       3.08827406
Te       9.44574291       1.94540926       5.55889331
Te       4.84357751       3.71213292       6.79420293
Te       8.34979588       0.99053106       9.26482218
Te       9.04265440       5.37466507      11.73544142
10
Lattice="4.42 0.0 0.0 0.0 4.42 0.0 0.0 0.0 10.86" Properties=species:S:1:pos:R:3 wyckoff_letters="_JSON [\"h\", \"g\", \"g\", \"h\", \"d\", \"a\", \"i\", \"i\", \"i\", \"i\"]" formula=SrCe(GeAu)4 source="Au Ce Ge Sr | 10 |" target="A4B4CD Au Ce Ge Sr | Au4CeSrGe4 | SG 123 P4/mmm | OX: CN:21;22;26;26;22 NN:2.64;3.27;2.63;2.49;3.42 NP:Au-Au:3.12;Au-Ce:3.42;Au-Ge:2.64;Au-Sr:3.42;Ce-Ce:4.42;Ce-Ge:3.27;Ge-Ge:2.49;Ge-Sr:3.42;Sr-Sr:4.42 WP:i:4;a:1;g:2;h:2;d:1 | 4.42 4.42 10.86 90.0 90.0 90.0 | Ge h 0.50 0.50 0.12 Ge g 0.00 0.00 0.38 Ge g 0.00 0.00 0.62 Ge h 0.50 0.50 0.88 Sr d 0.50 0.50 0.50 Ce a 0.00 0.00 0.00 Au i 0.50 0.00 0.24 Au i 0.00 0.50 0.24 Au i 0.50 0.00 0.76 Au i 0.00 0.50 0.76" pbc="T T T"
Ge       2.21000000       2.21000000       1.30320000
Ge       0.00000000       0.00000000       4.12680000
Ge       0.00000000       0.00000000       6.73320000
Ge       2.21000000       2.21000000       9.55680000
Sr       2.21000000       2.21000000       5.43000000
Ce       0.00000000       0.00000000       0.00000000
Au       2.21000000       0.00000000       2.60640000
Au       0.00000000       2.21000000       2.60640000
Au       2.21000000       0.00000000       8.25360000
Au       0.00000000       2.21000000       8.25360000
24
Lattice="11.08 0.0 0.0 -5.539999999999997 9.59556147393158 0.0 0.0 0.0 11.08" Properties=species:S:1:pos:R:3 wyckoff_letters="_JSON [\"b\", \"a\", \"c\", \"c\", \"c\", \"b\", \"a\", \"c\", \"c\", \"c\", \"b\", \"b\", \"c\", \"c\", \"c\", \"c\", \"c\", \"c\", \"c\", \"c\", \"c\", \"c\", \"c\", \"c\"]" formula=Cs3Tl3TeBr5 source="Br Cs Te Tl | 24 |" target="A6B4CD Br Cs Te Tl | Cs2Tl12Br8Te2 | SG 186 P6_3mc | OX:-1;+1;+2;-2;+1 CN:9;9;6;6;6 NN:2.95;3.76;2.96;2.95;3.56 NP:Br-Br:4.12;Br-Te:4.17;Br-Tl:2.95;Cs-Tl:4.65;Te-Tl:3.54 WP:a:2;b:2;c:12;b:2;c:6 | 11.08 11.08 11.08 90.0 90.0 120.0 | Br b 0.67 0.33 0.03 Br a 0.00 0.00 0.21 Br c 0.08 0.52 0.28 Br c 0.48 0.52 0.28 Br c 0.48 0.92 0.28 Br b 0.33 0.67 0.53 Br a 0.00 0.00 0.71 Br c 0.52 0.08 0.78 Br c 0.52 0.48 0.78 Br c 0.92 0.48 0.78 Te b 0.33 0.67 0.17 Te b 0.67 0.33 0.67 Cs c 0.26 0.13 0.01 Cs c 0.87 0.13 0.01 Cs c 0.87 0.74 0.01 Cs c 0.13 0.26 0.51 Cs c 0.13 0.87 0.51 Cs c 0.74 0.87 0.51 Tl c 0.54 0.08 0.23 Tl c 0.54 0.46 0.23 Tl c 0.92 0.46 0.23 Tl c 0.08 0.54 0.73 Tl c 0.46 0.54 0.73 Tl c 0.46 0.92 0.73" pbc="T T T"
Br       5.59540000       3.16653529       0.33240000
Br       0.00000000       0.00000000       2.32680000
Br      -1.99440000       4.98969197       3.10240000
Br       2.43760000       4.98969197       3.10240000
Br       0.22160000       8.82791656       3.10240000
Br      -0.05540000       6.42902619       5.87240000
Br       0.00000000       0.00000000       7.86680000
Br       5.31840000       0.76764492       8.64240000
Br       3.10240000       4.60586951       8.64240000
Br       7.53440000       4.60586951       8.64240000
Te      -0.05540000       6.42902619       1.88360000
Te       5.59540000       3.16653529       7.42360000
Cs       2.16060000       1.24742299       0.11080000
Cs       8.91940000       1.24742299       0.11080000
Cs       5.54000000       7.10071549       0.11080000
Cs       0.00000000       2.49484598       5.65080000
Cs      -3.37940000       8.34813848       5.65080000
Cs       3.37940000       8.34813848       5.65080000
Tl       5.54000000       0.76764492       2.54840000
Tl       3.43480000       4.41395828       2.54840000
Tl       7.64520000       4.41395828       2.54840000
Tl      -2.10520000       5.18160320       8.08840000
Tl       2.10520000       5.18160320       8.08840000
Tl       0.00000000       8.82791656       8.08840000
25
Lattice="5.11 0.0 0.0 0.0 5.96 0.0 0.0 0.0 14.75" Properties=species:S:1:pos:R:3 wyckoff_letters="_JSON [\"a\", \"a\", \"b\", \"b\", \"a\", \"a\", \"a\", \"b\", \"b\", \"b\", \"a\", \"a\", \"a\", \"b\", \"b\", \"b\", \"a\", \"a\", \"b\", \"b\", \"b\", \"a\", \"b\", \"a\", \"a\"]" formula=Ce4ThCu20 source="Ce Cu Th | 28 |" target="A20B5C Ce Cu Th | Ce5Cu20Th | SG 6 Pm | OX: CN:31;31;32;35;33 NN:2.95;2.93;2.51;2.51;2.99 NP:Ce-Ce:3.42;Ce-Cu:2.89;Ce-Th:4.99;Cu-Cu:2.50;Cu-Th:2.99 WP:a:3;b:2;a:8;b:10;a:1 | 5.11 5.96 14.75 90.0 90.0 90.0 | Cu a 0.00 0.40 0.02 Cu a 0.00 0.09 0.08 Cu b 0.50 0.45 0.15 Cu b 0.50 0.80 0.20 Cu a 0.00 0.58 0.24 Cu a 0.00 0.08 0.27 Cu a 0.00 0.30 0.30 Cu b 0.50 0.95 0.35 Cu b 0.50 0.59 0.42 Cu b 0.50 0.90 0.48 Cu a 0.00 0.10 0.52 Cu a 0.00 0.41 0.58 Cu a 0.00 0.71 0.65 Cu b 0.50 0.05 0.65 Cu b 0.50 0.92 0.73 Cu b 0.50 0.42 0.77 Cu a 0.00 0.20 0.80 Cu a 0.00 0.55 0.85 Cu b 0.50 0.91 0.92 Cu b 0.50 0.60 0.95 Ce b 0.50 0.24 0.05 Ce a 0.00 0.74 0.45 Ce b 0.50 0.26 0.55 Ce a 0.00 0.76 0.95 Th a 0.00 0.89 0.14" pbc="T T T"
Cu       0.00000000       2.38400000       0.29500000
Cu       0.00000000       0.53640000       1.18000000
Cu       2.55500000       2.68200000       2.21250000
Cu       2.55500000       4.76800000       2.95000000
Cu       0.00000000       3.45680000       3.54000000
Cu       0.00000000       0.47680000       3.98250000
Cu       0.00000000       1.78800000       4.42500000
Cu       2.55500000       5.66200000       5.16250000
Cu       2.55500000       3.51640000       6.19500000
Cu       2.55500000       5.36400000       7.08000000
Cu       0.00000000       0.59600000       7.67000000
Cu       0.00000000       2.44360000       8.55500000
Cu       0.00000000       4.23160000       9.58750000
Cu       2.55500000       0.29800000       9.58750000
Cu       2.55500000       5.48320000      10.76750000
Cu       2.55500000       2.50320000      11.35750000
Cu       0.00000000       1.19200000      11.80000000
Cu       0.00000000       3.27800000      12.53750000
Cu       2.55500000       5.42360000      13.57000000
Cu       2.55500000       3.57600000      14.01250000
Ce       2.55500000       1.43040000       0.73750000
Ce       0.00000000       4.41040000       6.63750000
Ce       2.55500000       1.54960000       8.11250000
Ce       0.00000000       4.52960000      14.01250000
Th       0.00000000       5.30440000       2.06500000
62
Lattice="5.81 0.0 0.0 0.0 10.2 0.0 -2.358475394418976 0.0 9.748768835802819" Properties=species:S:1:pos:R:3 wyckoff_letters="_JSON [\"e\", \"f\", \"f\", \"f\", \"f\", \"f\", \"f\", \"f\", \"f\", \"e\", \"e\", \"e\", \"e\", \"f\", \"f\", \"f\", \"f\", \"e\", \"e\", \"e\", \"e\", \"f\", \"f\", \"e\", \"f\", \"f\", \"e\", \"f\", \"f\", \"f\", \"f\", \"f\", \"f\", \"e\", \"e\", \"e\", \"e\", \"f\", \"f\", \"f\", \"f\", \"f\", \"f\", \"e\", \"f\", \"f\", \"e\", \"f\", \"f\", \"e\", \"e\", \"e\", \"e\", \"e\", \"e\", \"e\", \"e\", \"e\", \"e\", \"e\", \"e\", \"e\"]" formula=Na4Li2Ge6B8(H3O11)3 source="B Ge H Li Na O | 60 |" target="A8B3CDEF B Ge H Li Na O | Li4Na4B12Ge4H4O32 | SG 11 P2_1/m | OX:+3;+4;+4;+1;+1;+1;+1;-2;-2 CN:55;51;50;45;49;52;50;52;53 NN:1.41;1.30;1.74;0.98;1.94;2.07;2.39;1.39;1.47 NP:B-B:2.45;B-Ge:2.80;B-H:2.03;B-Li:2.75;B-Na:3.08;B-O:1.36;Ge-Ge:3.20;Ge-H:2.42;Ge-Li:3.30;Ge-Na:3.54;Ge-O:1.74;H-H:2.32;H-Li:2.38;H-Na:2.88;H-O:0.98;Li-Li:4.15;Li-Na:4.11;Li-O:1.94;Na-Na:3.20;Na-O:2.37;O-O:2.31 WP:e:4;f:4;e:4;f:12;e:4;e:4;e:8;f:24 | 5.81 10.20 10.03 90.0 103.6 90.0 | H e 0.28 0.25 0.02 H f 0.75 0.51 0.14 H f 0.75 0.99 0.14 H f 0.24 0.55 0.39 H f 0.24 0.95 0.39 H f 0.76 0.05 0.61 H f 0.76 0.45 0.61 H f 0.25 0.01 0.86 H f 0.25 0.49 0.86 Li e 0.36 0.75 0.11 Li e 0.86 0.75 0.89 B e 0.31 0.25 0.11 B e 0.81 0.25 0.18 B f 0.20 0.01 0.32 B f 0.20 0.49 0.32 B f 0.80 0.01 0.68 B f 0.80 0.51 0.68 B e 0.19 0.75 0.82 B e 0.69 0.75 0.89 O e 0.62 0.25 0.04 O e 0.12 0.25 0.08 O f 0.34 0.10 0.16 O f 0.34 0.40 0.16 O e 0.82 0.75 0.17 O f 0.83 0.10 0.18 O f 0.83 0.40 0.18 O e 0.40 0.75 0.25 O f 0.27 0.01 0.33 O f 0.27 0.49 0.33 O f 0.27 0.62 0.40 O f 0.73 0.88 0.40 O f 0.71 0.11 0.40 O f 0.71 0.39 0.40 O e 0.04 0.25 0.43 O e 0.62 0.25 0.48 O e 0.38 0.75 0.52 O e 0.96 0.75 0.57 O f 0.29 0.61 0.60 O f 0.29 0.89 0.60 O f 0.27 0.12 0.60 O f 0.73 0.38 0.60 O f 0.73 0.51 0.67 O f 0.73 0.99 0.67 O e 0.60 0.25 0.75 O f 0.17 0.60 0.82 O f 0.17 0.90 0.82 O e 0.18 0.25 0.83 O f 0.66 0.60 0.84 O f 0.66 0.90 0.84 O e 0.88 0.75 0.92 O e 0.38 0.75 0.96 Na e 0.91 0.75 0.35 Na e 0.91 0.25 0.65 Na e 0.09 0.25 0.85 Na e 0.52 0.75 0.99 O e 0.48 0.25 0.99 Ge e 0.71 0.25 0.25 Ge e 0.21 0.25 0.25 Ge e 0.29 0.75 0.48 Ge e 0.71 0.25 0.52 Ge e 0.79 0.75 0.75 Ge e 0.29 0.75 0.75" pbc="T T T"
H        1.57963049       2.55000000       0.19497538
H        4.02731344       5.20200000       1.36482764
H        4.02731344      10.09800000       1.36482764
H        0.47459460       5.61000000       3.80201985
H        0.47459460       9.69000000       3.80201985
H        2.97693001       0.51000000       5.94674899
H        2.97693001       4.59000000       5.94674899
H       -0.57578884       0.10200000       8.38394120
H       -0.57578884       4.99800000       8.38394120
Li       1.83216771       7.65000000       1.07236457
Li       2.89755690       7.65000000       8.67640426
B        1.54166771       2.55000000       1.07236457
B        4.28157443       2.55000000       1.75477839
B        0.40728787       0.10200000       3.11960603
B        0.40728787       4.99800000       3.11960603
B        3.04423673       0.10200000       6.62916281
B        3.04423673       5.20200000       6.62916281
B       -0.83004982       7.65000000       7.99399045
B        1.90985690       7.65000000       8.67640426
O        3.50786098       2.55000000       0.38995075
O        0.50852197       2.55000000       0.77990151
O        1.59804394       1.02000000       1.55980301
O        1.59804394       4.08000000       1.55980301
O        4.36325918       7.65000000       1.65729070
O        4.39777443       1.02000000       1.75477839
O        4.39777443       4.08000000       1.75477839
O        1.73438115       7.65000000       2.43719221
O        0.79040312       0.10200000       3.21709372
O        0.79040312       4.99800000       3.21709372
O        0.62530984       6.32400000       3.89950753
O        3.29790984       8.97600000       3.89950753
O        3.18170984       1.12200000       3.89950753
O        3.18170984       3.97800000       3.89950753
O       -0.78174442       2.55000000       4.19197060
O        2.47013181       2.55000000       4.67940904
O        0.98139279       7.65000000       5.06935979
O        4.23326903       7.65000000       5.55679824
O        0.26981476       6.22200000       5.84926130
O        0.26981476       9.07800000       5.84926130
O        0.15361476       1.22400000       5.84926130
O        2.82621476       3.87600000       5.84926130
O        2.66112149       5.20200000       6.53167512
O        2.66112149      10.09800000       6.53167512
O        1.71714345       2.55000000       7.31157663
O       -0.94624982       6.12000000       7.99399045
O       -0.94624982       9.18000000       7.99399045
O       -0.91173458       2.55000000       8.09147813
O        1.85348067       6.12000000       8.18896582
O        1.85348067       9.18000000       8.18896582
O        2.94300264       7.65000000       8.96886733
O       -0.05633638       7.65000000       9.35881808
Na       4.46163361       7.65000000       3.41206909
Na       3.75409099       2.55000000       6.33669974
Na      -1.48180409       2.55000000       8.28645351
Na       0.68630936       7.65000000       9.65128115
O        0.45390936       2.55000000       9.65128115
Ge       3.53548115       2.55000000       2.43719221
Ge       0.63048115       2.55000000       2.43719221
Ge       0.55283181       7.65000000       4.67940904
Ge       2.89869279       2.55000000       5.06935979
Ge       2.82104345       7.65000000       7.31157663
Ge      -0.08395655       7.65000000       7.31157663
8
Lattice="5.59 0.0 0.0 0.0 5.59 0.0 0.0 0.0 3.92" Properties=species:S:1:pos:R:3 wyckoff_letters="_JSON [\"b\", \"d\", \"j\", \"j\", \"j\", \"j\", \"e\", \"e\"]" formula=MnFePt6 source="Fe Mn Pt | 8 |" target="A6BC Fe Mn Pt | FeMnPt6 | SG 123 P4/mmm | OX: CN:42;42;42;42 NN:2.77;2.79;2.74;2.77 NP:Fe-Fe:3.92;Fe-Mn:3.95;Fe-Pt:2.77;Mn-Mn:3.92;Mn-Pt:2.79;Pt-Pt:2.74 WP:d:1;b:1;e:2;j:4 | 5.59 5.59 3.92 90.0 90.0 90.0 | Mn b 0.00 0.00 0.50 Fe d 0.50 0.50 0.50 Pt j 0.25 0.25 0.00 Pt j 0.75 0.25 0.00 Pt j 0.25 0.75 0.00 Pt j 0.75 0.75 0.00 Pt e 0.50 0.00 0.50 Pt e 0.00 0.50 0.50" pbc="T T T"
Mn       0.00000000       0.00000000       1.96000000
Fe       2.79500000       2.79500000       1.96000000
Pt       1.39750000       1.39750000       0.00000000
Pt       4.19250000       1.39750000       0.00000000
Pt       1.39750000       4.19250000       0.00000000
Pt       4.19250000       4.19250000       0.00000000
Pt       2.79500000       0.00000000       1.96000000
Pt       0.00000000       2.79500000       1.96000000
70
Lattice="5.51 0.0 0.0 0.0 14.43 0.0 0.0 0.0 16.39" Properties=species:S:1:pos:R:3 wyckoff_letters="_JSON [\"e\", \"e\", \"e\", \"e\", \"e\", \"e\", \"e\", \"e\", \"e\", \"e\", \"e\", \"e\", \"e\", \"e\", \"e\", \"e\", \"e\", \"e\", \"e\", \"e\", \"e\", \"e\", \"e\", \"e\", \"e\", \"e\", \"e\", \"e\", \"e\", \"e\", \"e\", \"e\", \"e\", \"e\", \"e\", \"e\", \"e\", \"e\", \"e\", \"e\", \"e\", \"e\", \"e\", \"e\", \"e\", \"e\", \"e\", \"e\", \"d\", \"e\", \"e\", \"d\", \"d\", \"e\", \"e\", \"d\", \"c\", \"c\", \"d\", \"d\", \"c\", \"c\", \"d\", \"d\", \"d\", \"c\", \"d\", \"d\", \"c\", \"d\"]" formula=Tb3Te4(MoO6)4 source="Mo O Tb Te | 72 |" target="A12B3C2D Mo O Tb Te | Mo8Tb4O48Te12 | SG 57 Pbcm | OX:+6;-2;+3;+3;+3;+3;+4 CN:38;32;34;38;34;34;36 NN:1.80;1.83;1.83;1.76;2.33;2.30;1.82;1.90 NP:Mo-Mo:4.29;Mo-O:1.80;Mo-Tb:3.91;Mo-Te:3.48;O-O:2.67;O-Tb:2.30;O-Te:1.90;Tb-Tb:3.88;Tb-Te:3.39;Te-Te:3.92 WP:d:4;e:8;e:40;c:4;d:4;c:4;d:4 | 5.51 14.43 16.39 90.0 90.0 90.0 | O e 0.32 0.07 0.03 O e 0.68 0.57 0.03 O e 0.72 0.33 0.07 O e 0.28 0.83 0.07 O e 0.18 0.38 0.10 O e 0.82 0.88 0.10 O e 0.57 0.01 0.15 O e 0.43 0.51 0.15 O e 0.73 0.21 0.17 O e 0.27 0.71 0.17 O e 0.67 0.38 0.18 O e 0.33 0.88 0.18 O e 0.67 0.38 0.32 O e 0.33 0.88 0.32 O e 0.73 0.21 0.33 O e 0.27 0.71 0.33 O e 0.57 0.01 0.35 O e 0.43 0.51 0.35 O e 0.18 0.38 0.40 O e 0.82 0.88 0.40 O e 0.72 0.33 0.43 O e 0.28 0.83 0.43 O e 0.32 0.07 0.47 O e 0.68 0.57 0.47 O e 0.32 0.43 0.53 O e 0.68 0.93 0.53 O e 0.72 0.17 0.57 O e 0.28 0.67 0.57 O e 0.18 0.12 0.60 O e 0.82 0.62 0.60 O e 0.57 0.49 0.65 O e 0.43 0.99 0.65 O e 0.73 0.29 0.67 O e 0.27 0.79 0.67 O e 0.67 0.12 0.68 O e 0.33 0.62 0.68 O e 0.67 0.12 0.82 O e 0.33 0.62 0.82 O e 0.73 0.29 0.83 O e 0.27 0.79 0.83 O e 0.57 0.49 0.85 O e 0.43 0.99 0.85 O e 0.18 0.12 0.90 O e 0.82 0.62 0.90 O e 0.72 0.17 0.93 O e 0.28 0.67 0.93 O e 0.32 0.43 0.97 O e 0.68 0.93 0.97 Mo d 0.50 0.25 0.07 Mo e 0.37 0.64 0.10 Mo e 0.63 0.14 0.40 Mo d 0.50 0.75 0.43 Mo d 0.50 0.25 0.57 Mo e 0.37 0.86 0.60 Mo e 0.63 0.36 0.90 Mo d 0.50 0.75 0.93 Te c 0.68 0.25 0.00 Te c 0.32 0.75 0.00 Te d 0.95 0.07 0.25 Te d 0.05 0.57 0.25 Te c 0.68 0.25 0.50 Te c 0.32 0.75 0.50 Te d 0.95 0.43 0.75 Te d 0.05 0.93 0.75 Tb d 0.02 0.39 0.25 Tb c 0.93 0.75 0.00 Tb d 0.98 0.89 0.25 Tb d 0.02 0.11 0.75 Tb c 0.07 0.25 0.50 Tb d 0.98 0.61 0.75" pbc="T T T"
O        1.76320000       1.01010000       0.49170000
O        3.74680000       8.22510000       0.49170000
O        3.96720000       4.76190000       1.14730000
O        1.54280000      11.97690000       1.14730000
O        0.99180000       5.48340000       1.63900000
O        4.51820000      12.69840000       1.63900000
O        3.14070000       0.14430000       2.45850000
O        2.36930000       7.35930000       2.45850000
O        4.02230000       3.03030000       2.78630000
O        1.48770000      10.24530000       2.78630000
O        3.69170000       5.48340000       2.95020000
O        1.81830000      12.69840000       2.95020000
O        3.69170000       5.48340000       5.24480000
O        1.81830000      12.69840000       5.24480000
O        4.02230000       3.03030000       5.40870000
O        1.48770000      10.24530000       5.40870000
O        3.14070000       0.14430000       5.73650000
O        2.36930000       7.35930000       5.73650000
O        0.99180000       5.48340000       6.55600000
O        4.51820000      12.69840000       6.55600000
O        3.96720000       4.76190000       7.04770000
O        1.54280000      11.97690000       7.04770000
O        1.76320000       1.01010000       7.70330000
O        3.74680000       8.22510000       7.70330000
O        1.76320000       6.20490000       8.68670000
O        3.74680000      13.41990000       8.68670000
O        3.96720000       2.45310000       9.34230000
O        1.54280000       9.66810000       9.34230000
O        0.99180000       1.73160000       9.83400000
O        4.51820000       8.94660000       9.83400000
O        3.14070000       7.07070000      10.65350000
O        2.36930000      14.28570000      10.65350000
O        4.02230000       4.18470000      10.98130000
O        1.48770000      11.39970000      10.98130000
O        3.69170000       1.73160000      11.14520000
O        1.81830000       8.94660000      11.14520000
O        3.69170000       1.73160000      13.43980000
O        1.81830000       8.94660000      13.43980000
O        4.02230000       4.18470000      13.60370000
O        1.48770000      11.39970000      13.60370000
O        3.14070000       7.07070000      13.93150000
O        2.36930000      14.28570000      13.93150000
O        0.99180000       1.73160000      14.75100000
O        4.51820000       8.94660000      14.75100000
O        3.96720000       2.45310000      15.24270000
O        1.54280000       9.66810000      15.24270000
O        1.76320000       6.20490000      15.89830000
O        3.74680000      13.41990000      15.89830000
Mo       2.75500000       3.60750000       1.14730000
Mo       2.03870000       9.23520000       1.63900000
Mo       3.47130000       2.02020000       6.55600000
Mo       2.75500000      10.82250000       7.04770000
Mo       2.75500000       3.60750000       9.34230000
Mo       2.03870000      12.40980000       9.83400000
Mo       3.47130000       5.19480000      14.75100000
Mo       2.75500000      10.82250000      15.24270000
Te       3.74680000       3.60750000       0.00000000
Te       1.76320000      10.82250000       0.00000000
Te       5.23450000       1.01010000       4.09750000
Te       0.27550000       8.22510000       4.09750000
Te       3.74680000       3.60750000       8.19500000
Te       1.76320000      10.82250000       8.19500000
Te       5.23450000       6.20490000      12.29250000
Te       0.27550000      13.41990000      12.29250000
Tb       0.11020000       5.62770000       4.09750000
Tb       5.12430000      10.82250000       0.00000000
Tb       5.39980000      12.84270000       4.09750000
Tb       0.11020000       1.58730000      12.29250000
Tb       0.38570000       3.60750000       8.19500000
Tb       5.39980000       8.80230000      12.29250000
12
Lattice="5.96 0.0 0.0 -2.97098692893283 5.166704623656192 0.0 -1.1289918430000048 -1.9515362551478002 7.205510645560324" Properties=species:S:1:pos:R:3 wyckoff_letters="_JSON [\"j\", \"j\", \"i\", \"i\", \"j\", \"j\", \"d\", \"h\", \"h\", \"a\", \"g\", \"g\"]" formula=K3AcAsAuO6 source="Ac As K O | 12 |" target="A6B3C2D Ac As K O | Ac2K3AsO6 | SG 12 C2/m | OX: CN:24;17;16;16;18;19 NN:2.30;2.71;3.31;3.22;2.31;1.97 NP:Au-As:4.58;Au-K:3.56;Au-O:2.30;As-K:3.50;As-O:2.31;K-K:3.62;K-O:3.21;O-O:2.78 WP:g:2;a:1;d:1;h:2;i:2;j:4 | 5.96 5.96 7.55 98.6 98.6 119.9 | O j 0.06 0.36 0.19 O j 0.36 0.06 0.19 O i 0.77 0.77 0.21 O i 0.23 0.23 0.79 O j 0.64 0.94 0.81 O j 0.94 0.64 0.81 K d 0.50 0.50 0.50 K h 0.83 0.17 0.50 K h 0.17 0.83 0.50 As a 0.00 0.00 0.00 Ac g 0.67 0.33 0.00 Au g 0.33 0.67 1.00" pbc="T T T"
O       -0.92646374       1.48922178       1.36904702
O        1.75283233      -0.06078961       1.36904702
O        2.06445178       3.56853995       1.51315724
O       -0.20443055      -0.35337158       5.69235341
O        0.10718889       3.27595798       5.83646362
O        2.78648497       1.72594659       5.83646362
K        0.93001061       1.60758418       3.60275532
K        3.87723630      -0.09742834       3.60275532
K       -2.01721507       3.31259671       3.60275532
As       0.00000000       0.00000000       0.00000000
Ac       3.01277431       1.70501253       0.00000000
Au      -1.15275309       1.51015584       7.20551065
48
Lattice="6.99 0.0 0.0 0.0 9.35 0.0 0.0 0.0 9.69" Properties=species:S:1:pos:R:3 wyckoff_letters="_JSON [\"a\", \"a\", \"a\", \"a\", \"a\", \"a\", \"a\", \"a\", \"a\", \"a\", \"a\", \"a\", \"a\", \"a\", \"a\", \"a\", \"a\", \"a\", \"a\", \"a\", \"a\", \"a\", \"a\", \"a\", \"a\", \"a\", \"a\", \"a\", \"a\", \"a\", \"a\", \"a\", \"a\", \"a\", \"a\", \"a\", \"a\", \"a\", \"a\", \"a\", \"a\", \"a\", \"a\", \"a\", \"a\", \"a\", \"a\", \"a\"]" formula=RbSiB3O7 source="B O Rb Si | 48 |" target="A7B3CD B O Rb Si | Rb4B12O28Si4 | SG 33 Pna2_1 | OX:+3;-2;+1;+4 CN:44;41;43;42 NN:1.39;1.40;2.91;1.62 NP:B-B:2.41;B-O:1.36;B-Rb:3.37;B-Si:2.75;O-O:2.33;O-Rb:2.91;O-Si:1.62;Rb-Rb:4.77;Rb-Si:3.80 WP:a:12;a:28;a:4;a:4 | 6.99 9.35 9.69 90.0 90.0 90.0 | B a 0.41 0.69 0.01 B a 0.07 0.65 0.06 B a 0.30 0.53 0.21 B a 0.30 0.03 0.29 B a 0.07 0.15 0.44 B a 0.41 0.19 0.49 B a 0.91 0.81 0.51 B a 0.57 0.85 0.56 B a 0.80 0.97 0.71 B a 0.80 0.47 0.79 B a 0.57 0.35 0.94 B a 0.91 0.31 0.99 O a 0.88 0.28 0.02 O a 0.71 0.79 0.03 O a 0.04 0.76 0.08 O a 0.11 0.10 0.10 O a 0.33 0.59 0.14 O a 0.31 0.33 0.16 O a 0.31 0.88 0.20 O a 0.31 0.38 0.30 O a 0.31 0.83 0.34 O a 0.33 0.09 0.36 O a 0.11 0.60 0.40 O a 0.04 0.26 0.42 O a 0.71 0.29 0.47 O a 0.88 0.78 0.48 O a 0.38 0.22 0.52 O a 0.21 0.71 0.53 O a 0.54 0.74 0.58 O a 0.61 0.40 0.60 O a 0.83 0.91 0.64 O a 0.81 0.17 0.66 O a 0.81 0.62 0.70 O a 0.81 0.12 0.80 O a 0.81 0.67 0.84 O a 0.83 0.41 0.86 O a 0.61 0.90 0.90 O a 0.54 0.24 0.92 O a 0.21 0.21 0.97 O a 0.38 0.72 0.98 Si a 0.27 0.77 0.10 Si a 0.27 0.27 0.40 Si a 0.77 0.73 0.60 Si a 0.77 0.23 0.90 Rb a 0.75 0.01 0.19 Rb a 0.75 0.51 0.31 Rb a 0.25 0.49 0.69 Rb a 0.25 0.99 0.81" pbc="T T T"
B        2.86590000       6.45150000       0.09690000
B        0.48930000       6.07750000       0.58140000
B        2.09700000       4.95550000       2.03490000
B        2.09700000       0.28050000       2.81010000
B        0.48930000       1.40250000       4.26360000
B        2.86590000       1.77650000       4.74810000
B        6.36090000       7.57350000       4.94190000
B        3.98430000       7.94750000       5.42640000
B        5.59200000       9.06950000       6.87990000
B        5.59200000       4.39450000       7.65510000
B        3.98430000       3.27250000       9.10860000
B        6.36090000       2.89850000       9.59310000
O        6.15120000       2.61800000       0.19380000
O        4.96290000       7.38650000       0.29070000
O        0.27960000       7.10600000       0.77520000
O        0.76890000       0.93500000       0.96900000
O        2.30670000       5.51650000       1.35660000
O        2.16690000       3.08550000       1.55040000
O        2.16690000       8.22800000       1.93800000
O        2.16690000       3.55300000       2.90700000
O        2.16690000       7.76050000       3.29460000
O        2.30670000       0.84150000       3.48840000
O        0.76890000       5.61000000       3.87600000
O        0.27960000       2.43100000       4.06980000
O        4.96290000       2.71150000       4.55430000
O        6.15120000       7.29300000       4.65120000
O        2.65620000       2.05700000       5.03880000
O        1.46790000       6.63850000       5.13570000
O        3.77460000       6.91900000       5.62020000
O        4.26390000       3.74000000       5.81400000
O        5.80170000       8.50850000       6.20160000
O        5.66190000       1.58950000       6.39540000
O        5.66190000       5.79700000       6.78300000
O        5.66190000       1.12200000       7.75200000
O        5.66190000       6.26450000       8.13960000
O        5.80170000       3.83350000       8.33340000
O        4.26390000       8.41500000       8.72100000
O        3.77460000       2.24400000       8.91480000
O        1.46790000       1.96350000       9.39930000
O        2.65620000       6.73200000       9.49620000
Si       1.88730000       7.19950000       0.96900000
Si       1.88730000       2.52450000       3.87600000
Si       5.38230000       6.82550000       5.81400000
Si       5.38230000       2.15050000       8.72100000
Rb       5.24250000       0.09350000       1.84110000
Rb       5.24250000       4.76850000       3.00390000
Rb       1.74750000       4.58150000       6.68610000
Rb       1.74750000       9.25650000       7.84890000
9
Lattice="7.36 0.0 0.0 -3.6799999999999984 6.373946971853469 0.0 0.0 0.0 3.94" Properties=species:S:1:pos:R:3 wyckoff_letters="_JSON [\"d\", \"d\", \"g\", \"g\", \"g\", \"a\", \"f\", \"f\", \"f\"]" formula=Ce3Zn3Cu2Rh source="Ce Cu Rh Zn | 9 |" target="A3B3C2D Ce Cu Rh Zn | Ce3Cu2NiRh3 | SG 189 P-62m | OX: CN:20;32;29;28 NN:2.96;2.63;2.87;2.63 NP:Ce-Ce:3.74;Ce-Cu:3.05;Ce-Rh:2.96;Ce-Zn:3.23;Cu-Cu:3.94;Cu-Rh:4.69;Cu-Zn:2.63;Rh-Rh:3.94;Rh-Zn:2.87;Zn-Zn:2.91 WP:f:3;d:2;a:1;g:3 | 7.36 7.36 3.94 90.0 90.0 120.0 | Cu d 0.67 0.33 0.50 Cu d 0.33 0.67 0.50 Zn g 0.76 0.00 0.50 Zn g 0.24 0.24 0.50 Zn g 0.00 0.76 0.50 Rh a 0.00 0.00 0.00 Ce f 0.41 0.00 0.00 Ce f 0.00 0.41 0.00 Ce f 0.59 0.59 0.00" pbc="T T T"
Cu       3.71680000       2.10340250       1.97000000
Cu      -0.03680000       4.27054447       1.97000000
Zn       5.59360000       0.00000000       1.97000000
Zn       0.88320000       1.52974727       1.97000000
Zn      -2.79680000       4.84419970       1.97000000
Rh       0.00000000       0.00000000       0.00000000
Ce       3.01760000       0.00000000       0.00000000
Ce      -1.50880000       2.61331826       0.00000000
Ce       2.17120000       3.76062871       0.00000000
30
Lattice="5.28 0.0 0.0 2.6400000000000006 4.572614131981836 0.0 2.707210393009445 1.563008649156955 12.978848787571346" Properties=species:S:1:pos:R:3 wyckoff_letters="_JSON [\"b\", \"b\", \"b\", \"b\", \"b\", \"b\", \"b\", \"b\", \"b\", \"b\", \"b\", \"b\", \"a\", \"b\", \"b\", \"b\", \"b\", \"b\", \"b\", \"b\", \"b\", \"b\", \"b\", \"b\", \"b\", \"a\", \"a\", \"a\", \"a\", \"a\"]" formula=Nd3UBe26 source="Be Nd U | 28 |" target="A13B4C Be Nd U | Be26Nd4U | SG 160 R3m | OX: CN:40;32;44;33 NN:2.14;2.14;2.99;2.98;2.91 NP:Be-Be:2.14;Be-Nd:2.98;Be-U:2.91;Nd-Nd:3.11;Nd-U:3.09 WP:a:2;b:18;a:1;a:4 | 5.28 5.28 13.35 78.3 78.3 60.0 | Be b 1.00 0.50 0.00 Be b 0.50 1.00 0.00 Be b 0.50 0.50 0.00 Be b 0.33 0.33 0.01 Be b 1.00 0.80 0.17 Be b 0.80 0.33 0.18 Be b 0.33 0.80 0.18 Be b 0.81 0.81 0.18 Be b 0.45 0.05 0.35 Be b 0.05 0.45 0.35 Be b 0.05 0.05 0.35 Be b 0.50 0.50 0.35 Be a 0.36 0.36 0.43 Be b 0.18 0.17 0.50 Be b 0.81 0.81 0.50 Be b 0.50 0.00 0.50 Be b 0.00 0.50 0.50 Be b 0.80 0.20 0.67 Be b 0.20 0.80 0.67 Be b 0.67 0.67 0.70 Be b 0.20 0.20 0.82 Be b 0.56 0.56 0.82 Be b 0.44 0.94 0.82 Be b 0.06 0.44 0.82 Be b 0.06 0.06 1.00 Be a 0.50 0.50 1.00 Nd a 0.88 0.88 0.35 Nd a 0.12 0.12 0.65 Nd a 0.66 0.66 0.91 U a 0.00 0.00 0.00" pbc="T T T"
Be       6.60000000       2.28630707       0.00000000
Be       5.28000000       4.57261413       0.00000000
Be       3.96000000       2.28630707       0.00000000
Be       2.64067210       1.52459275       0.12978849
Be       7.85222577       3.92380278       2.20640429
Be       5.58249787       1.79030422       2.33619278
Be       4.34169787       3.93943286       2.33619278
Be       6.90249787       3.98515900       2.33619278
Be       3.45552364       0.77568373       4.54259708
Be       2.39952364       2.60472939       4.54259708
Be       1.34352364       0.77568373       4.54259708
Be       4.90752364       2.83336009       4.54259708
Be       4.01530047       2.31823481       5.58090498
Be       2.75280520       1.55884873       6.48942439
Be       7.76880520       4.48532177       6.48942439
Be       3.99360520       0.78150432       6.48942439
Be       2.67360520       3.06781139       6.48942439
Be       6.56583096       1.96173862       8.69582869
Be       4.98183096       4.70530710       8.69582869
Be       7.20144728       4.15775752       9.08519415
Be       3.80391252       2.19618992      10.64265601
Be       6.65511252       3.84233101      10.64265601
Be       7.02471252       5.57992438      10.64265601
Be       3.69831252       3.29361731      10.64265601
Be       3.18241039       1.83736550      12.97884879
Be       6.66721039       3.84931572      12.97884879
Nd       7.91712364       4.57095346       4.54259708
Nd       2.71008676       1.56466932       8.43625171
Nd       7.69076146       4.44026320      11.81075240
U        0.00000000       0.00000000       0.00000000
15
Lattice="4.91 0.0 0.0 0.0 6.96 0.0 0.0 0.0 14.36" Properties=species:S:1:pos:R:3 wyckoff_letters="_JSON [\"h\", \"h\", \"h\", \"h\", \"a\", \"h\", \"g\", \"g\", \"h\", \"a\", \"h\", \"g\", \"g\", \"h\", \"c\"]" formula=La4Th11 source="La Th Tl | 16 |" target="A5B2C La Th Tl | La4Th10Tl2 | SG 55 Pbam | OX: CN:18;18;18;18;18 NN:3.55;3.45;3.45;3.52;3.50 NP:La-La:4.91;La-Th:3.55;La-Tl:3.55;Th-Th:3.45;Th-Tl:3.50;Tl-Tl:4.91 WP:h:4;a:2;g:4;h:4;c:2 | 4.91 6.96 14.36 90.0 90.0 90.0 | La h 0.50 0.25 0.13 La h 0.50 0.75 0.37 La h 0.50 0.25 0.63 La h 0.50 0.75 0.87 Th a 0.00 0.00 0.00 Th h 0.50 0.75 0.12 Th g 0.00 0.50 0.25 Th g 0.00 0.00 0.25 Th h 0.50 0.25 0.38 Th a 0.00 0.50 0.50 Th h 0.50 0.75 0.62 Th g 0.00 1.00 0.75 Th g 0.00 0.50 0.75 Th h 0.50 0.25 0.88 Th c 0.00 0.50 1.00" pbc="T T T"
La       2.45500000       1.74000000       1.86680000
La       2.45500000       5.22000000       5.31320000
La       2.45500000       1.74000000       9.04680000
La       2.45500000       5.22000000      12.49320000
Th       0.00000000       0.00000000       0.00000000
Th       2.45500000       5.22000000       1.72320000
Th       0.00000000       3.48000000       3.59000000
Th       0.00000000       0.00000000       3.59000000
Th       2.45500000       1.74000000       5.45680000
Th       0.00000000       3.48000000       7.18000000
Th       2.45500000       5.22000000       8.90320000
Th       0.00000000       6.96000000      10.77000000
Th       0.00000000       3.48000000      10.77000000
Th       2.45500000       1.74000000      12.63680000
Th       0.00000000       3.48000000      14.36000000
16
Lattice="4.07 0.0 0.0 0.0 5.37 0.0 0.0 0.0 11.15" Properties=species:S:1:pos:R:3 wyckoff_letters="_JSON [\"d\", \"g\", \"h\", \"h\", \"g\", \"d\", \"g\", \"h\", \"h\", \"g\", \"b\", \"b\", \"g\", \"g\", \"g\", \"g\"]" formula=Hf2Zn5Ga source="Ga Hf Zn | 16 |" target="A5B2C Ga Hf Zn | Ga2Hf4Zn10 | SG 55 Pbam | OX: CN:34;34;38;34;36 NN:2.69;2.75;2.70;2.70;2.69 NP:Ga-Ga:4.07;Ga-Hf:3.06;Ga-Zn:2.69;Hf-Hf:3.77;Hf-Zn:2.75;Zn-Zn:2.69 WP:b:2;g:4;d:2;g:4;h:4 | 4.07 5.37 11.15 90.0 90.0 90.0 | Zn d 0.50 0.50 0.00 Zn g 0.00 0.22 0.12 Zn h 0.50 0.99 0.24 Zn h 0.50 0.49 0.26 Zn g 0.00 0.72 0.38 Zn d 0.50 0.00 0.50 Zn g 0.00 0.28 0.62 Zn h 0.50 0.51 0.74 Zn h 0.50 0.01 0.76 Zn g 0.00 0.78 0.88 Ga b 0.50 0.00 0.00 Ga b 0.50 0.50 0.50 Hf g 0.00 0.74 0.13 Hf g 0.00 0.24 0.37 Hf g 0.00 0.76 0.63 Hf g 0.00 0.26 0.87" pbc="T T T"
Zn       2.03500000       2.68500000       0.00000000
Zn       0.00000000       1.18140000       1.33800000
Zn       2.03500000       5.31630000       2.67600000
Zn       2.03500000       2.63130000       2.89900000
Zn       0.00000000       3.86640000       4.23700000
Zn       2.03500000       0.00000000       5.57500000
Zn       0.00000000       1.50360000       6.91300000
Zn       2.03500000       2.73870000       8.25100000
Zn       2.03500000       0.05370000       8.47400000
Zn       0.00000000       4.18860000       9.81200000
Ga       2.03500000       0.00000000       0.00000000
Ga       2.03500000       2.68500000       5.57500000
Hf       0.00000000       3.97380000       1.44950000
Hf       0.00000000       1.28880000       4.12550000
Hf       0.00000000       4.08120000       7.02450000
Hf       0.00000000       1.39620000       9.70050000
7
Lattice="4.78 0.0 0.0 0.0 4.78 0.0 -2.393386403475864 -2.393386403475864 8.231245534383829" Properties=species:S:1:pos:R:3 wyckoff_letters="_JSON [\"a\", \"e\", \"e\", \"e\", \"e\", \"c\", \"c\"]" formula=Nd2Ho2Sn2C source="C Ho Nd Sn | 7 |" target="A2B2C2D C Ho Nd Sn | Ho2Nd2Sn2C | SG 139 I4/mmm | OX: CN:18;18;18;18 NN:2.39;2.39;2.67;3.27 NP:C-C:4.78;C-Ho:2.39;C-Nd:2.67;C-Sn:4.05;Ho-Ho:3.38;Ho-Nd:3.57;Ho-Sn:3.27;Nd-Nd:4.50;Nd-Sn:3.33;Sn-Sn:4.52 WP:a:1;c:2;e:2;e:2 | 4.78 4.78 8.90 105.6 105.6 90.0 | C a 0.00 0.00 0.00 Sn e 0.64 0.64 0.27 Sn e 0.36 0.36 0.73 Nd e 0.16 0.16 0.32 Nd e 0.84 0.84 0.68 Ho c 0.50 0.00 0.00 Ho c 0.00 0.50 0.00" pbc="T T T"
C        0.00000000       0.00000000       0.00000000
Sn       2.41298567       2.41298567       2.22243629
Sn      -0.02637207      -0.02637207       6.00880924
Nd      -0.00108365      -0.00108365       2.63399857
Nd       2.38769725       2.38769725       5.59724696
Ho       2.39000000       0.00000000       0.00000000
Ho       0.00000000       2.39000000       0.00000000
10
Lattice="4.47 0.0 0.0 -2.295529396700021 3.8355501285846905 0.0 0.10231987441324383 0.18048209383327588 4.5052255056884345" Properties=species:S:1:pos:R:3 wyckoff_letters="_JSON [\"c\", \"c\", \"c\", \"b\", \"c\", \"c\", \"c\", \"c\", \"c\", \"a\"]" formula=Al2FeH7 source="Al Fe H | 9 |" target="A6B2C Al Fe H | Al2FeH6 | SG 5 C2 | OX: CN:58;62;62;56 NN:1.86;1.65;1.44;1.46 NP:Al-Al:2.51;Al-Fe:2.43;Al-H:1.86;Fe-Fe:4.47;Fe-H:1.65;H-H:1.98 WP:c:2;a:1;b:1;c:6 | 4.47 4.47 4.51 88.7 88.7 120.9 | H c 0.88 0.61 0.28 H c 0.36 0.95 0.28 H c 0.58 0.26 0.30 H b 0.95 0.05 0.50 H c 0.74 0.42 0.70 H c 0.05 0.64 0.72 H c 0.39 0.12 0.72 Al c 0.69 0.57 0.15 Al c 0.43 0.31 0.85 Fe a 0.10 0.90 0.00" pbc="T T T"
H        2.56197663       2.39022056       1.26146314
H       -0.54290336       3.69430761       1.26146314
H        2.02645832       1.05138766       1.35156765
H        4.18288347       0.28201855       2.25261275
H        2.41530157       1.73726852       3.15365785
H       -1.17196850       2.58469919       3.24376236
H        1.54150678       0.59021312       3.24376236
Al       1.79119623       2.21333589       0.67578383
Al       1.29745778       1.34243032       3.82944168
Fe      -1.61897646       3.45199512       0.00000000
12
Lattice="3.53 0.0 0.0 0.0 5.71 0.0 0.0 0.0 6.52" Properties=species:S:1:pos:R:3 wyckoff_letters="_JSON [\"c\", \"c\", \"c\", \"c\", \"c\", \"c\", \"c\", \"c\", \"c\", \"c\", \"c\", \"c\"]" formula=FeCoP source="Co Fe P | 12 |" target="ABC Co Fe P | Co4Fe4P4 | SG 62 Pnma | OX:+1;+2;-3 CN:42;49;47 NN:2.15;2.22;2.15 NP:Co-Co:2.55;Co-Fe:2.66;Co-P:2.15;Fe-Fe:2.78;Fe-P:2.22;P-P:3.32 WP:c:4;c:4;c:4 | 3.53 5.71 6.52 90.0 90.0 90.0 | P c 0.75 0.75 0.12 P c 0.75 0.25 0.38 P c 0.25 0.75 0.62 P c 0.25 0.25 0.88 Fe c 0.25 0.03 0.16 Fe c 0.25 0.53 0.34 Fe c 0.75 0.47 0.66 Fe c 0.75 0.97 0.84 Co c 0.75 0.36 0.07 Co c 0.75 0.86 0.43 Co c 0.25 0.14 0.57 Co c 0.25 0.64 0.93" pbc="T T T"
P        2.64750000       4.28250000       0.78240000
P        2.64750000       1.42750000       2.47760000
P        0.88250000       4.28250000       4.04240000
P        0.88250000       1.42750000       5.73760000
Fe       0.88250000       0.17130000       1.04320000
Fe       0.88250000       3.02630000       2.21680000
Fe       2.64750000       2.68370000       4.30320000
Fe       2.64750000       5.53870000       5.47680000
Co       2.64750000       2.05560000       0.45640000
Co       2.64750000       4.91060000       2.80360000
Co       0.88250000       0.79940000       3.71640000
Co       0.88250000       3.65440000       6.06360000
72
Lattice="13.9 0.0 0.0 0.0 13.9 0.0 0.0 0.0 15.53" Properties=species:S:1:pos:R:3 wyckoff_letters="_JSON [\"c\", \"c\", \"c\", \"c\", \"d\", \"d\", \"c\", \"d\", \"d\", \"d\", \"d\", \"d\", \"d\", \"c\", \"c\", \"d\", \"d\", \"d\", \"d\", \"d\", \"d\", \"c\", \"d\", \"d\", \"d\", \"d\", \"c\", \"d\", \"d\", \"d\", \"d\", \"d\", \"d\", \"c\", \"c\", \"d\", \"d\", \"d\", \"d\", \"d\", \"d\", \"c\", \"d\", \"d\", \"c\", \"c\", \"c\", \"c\", \"c\", \"d\", \"d\", \"d\", \"d\", \"c\", \"c\", \"d\", \"d\", \"d\", \"d\", \"c\", \"c\", \"d\", \"d\", \"d\", \"d\", \"c\", \"c\", \"d\", \"d\", \"d\", \"d\", \"c\"]" formula=CsNd6CoI10 source="Co Cs I Nd | 72 |" target="A10B6CD Co Cs I Nd | Co4Cs4Nd24I40 | SG 62 Pnma | OX:+3;+1;-1;-1;+1;+1 CN:18;12;15;15;12;12;12 NN:2.70;4.05;3.23;3.23;3.25;2.71;2.81 NP:Co-I:4.48;Co-Nd:2.70;Cs-I:4.05;I-I:4.24;I-Nd:3.20;Nd-Nd:3.81 WP:c:4;c:4;c:8;d:32;c:8;d:16 | 13.90 13.90 15.53 90.0 90.0 90.0 | Co c 0.25 0.00 0.13 Co c 0.75 0.50 0.37 Co c 0.25 0.50 0.63 Co c 0.75 1.00 0.87 I d 0.07 0.75 0.04 I d 0.43 0.75 0.04 I c 0.75 0.74 0.04 I d 0.58 1.00 0.12 I d 0.92 1.00 0.12 I d 0.58 0.50 0.13 I d 0.92 0.50 0.13 I d 0.09 0.27 0.21 I d 0.41 0.27 0.21 I c 0.75 0.23 0.22 I c 0.25 0.73 0.28 I d 0.59 0.77 0.29 I d 0.91 0.77 0.29 I d 0.08 0.00 0.37 I d 0.42 0.00 0.37 I d 0.08 0.50 0.38 I d 0.42 0.50 0.38 I c 0.25 0.24 0.46 I d 0.57 0.25 0.46 I d 0.93 0.25 0.46 I d 0.07 0.75 0.54 I d 0.43 0.75 0.54 I c 0.75 0.76 0.54 I d 0.58 0.50 0.62 I d 0.92 0.50 0.62 I d 0.58 1.00 0.63 I d 0.92 1.00 0.63 I d 0.09 0.23 0.71 I d 0.41 0.23 0.71 I c 0.75 0.27 0.72 I c 0.25 0.77 0.78 I d 0.59 0.73 0.79 I d 0.91 0.73 0.79 I d 0.08 0.50 0.87 I d 0.42 0.50 0.87 I d 0.08 0.00 0.88 I d 0.42 0.00 0.88 I c 0.25 0.26 0.96 I d 0.57 0.25 0.96 I d 0.93 0.25 0.96 Cs c 0.25 0.51 0.09 Cs c 0.75 0.01 0.41 Cs c 0.25 0.99 0.59 Cs c 0.75 0.49 0.91 Nd c 0.75 0.11 0.01 Nd d 0.11 0.12 0.06 Nd d 0.39 0.12 0.06 Nd d 0.11 0.89 0.20 Nd d 0.39 0.89 0.20 Nd c 0.75 0.61 0.23 Nd c 0.25 0.11 0.27 Nd d 0.61 0.39 0.30 Nd d 0.89 0.39 0.30 Nd d 0.61 0.62 0.44 Nd d 0.89 0.62 0.44 Nd c 0.25 0.61 0.49 Nd c 0.75 0.39 0.51 Nd d 0.11 0.38 0.56 Nd d 0.39 0.38 0.56 Nd d 0.11 0.61 0.70 Nd d 0.39 0.61 0.70 Nd c 0.75 0.89 0.73 Nd c 0.25 0.39 0.77 Nd d 0.61 0.11 0.80 Nd d 0.89 0.11 0.80 Nd d 0.61 0.88 0.94 Nd d 0.89 0.88 0.94 Nd c 0.25 0.89 0.99" pbc="T T T"
Co       3.47500000       0.00000000       2.01890000
Co      10.42500000       6.95000000       5.74610000
Co       3.47500000       6.95000000       9.78390000
Co      10.42500000      13.90000000      13.51110000
I        0.97300000      10.42500000       0.62120000
I        5.97700000      10.42500000       0.62120000
I       10.42500000      10.28600000       0.62120000
I        8.06200000      13.90000000       1.86360000
I       12.78800000      13.90000000       1.86360000
I        8.06200000       6.95000000       2.01890000
I       12.78800000       6.95000000       2.01890000
I        1.25100000       3.75300000       3.26130000
I        5.69900000       3.75300000       3.26130000
I       10.42500000       3.19700000       3.41660000
I        3.47500000      10.14700000       4.34840000
I        8.20100000      10.70300000       4.50370000
I       12.64900000      10.70300000       4.50370000
I        1.11200000       0.00000000       5.74610000
I        5.83800000       0.00000000       5.74610000
I        1.11200000       6.95000000       5.90140000
I        5.83800000       6.95000000       5.90140000
I        3.47500000       3.33600000       7.14380000
I        7.92300000       3.47500000       7.14380000
I       12.92700000       3.47500000       7.14380000
I        0.97300000      10.42500000       8.38620000
I        5.97700000      10.42500000       8.38620000
I       10.42500000      10.56400000       8.38620000
I        8.06200000       6.95000000       9.62860000
I       12.78800000       6.95000000       9.62860000
I        8.06200000      13.90000000       9.78390000
I       12.78800000      13.90000000       9.78390000
I        1.25100000       3.19700000      11.02630000
I        5.69900000       3.19700000      11.02630000
I       10.42500000       3.75300000      11.18160000
I        3.47500000      10.70300000      12.11340000
I        8.20100000      10.14700000      12.26870000
I       12.64900000      10.14700000      12.26870000
I        1.11200000       6.95000000      13.51110000
I        5.83800000       6.95000000      13.51110000
I        1.11200000       0.00000000      13.66640000
I        5.83800000       0.00000000      13.66640000
I        3.47500000       3.61400000      14.90880000
I        7.92300000       3.47500000      14.90880000
I       12.92700000       3.47500000      14.90880000
Cs       3.47500000       7.08900000       1.39770000
Cs      10.42500000       0.13900000       6.36730000
Cs       3.47500000      13.76100000       9.16270000
Cs      10.42500000       6.81100000      14.13230000
Nd      10.42500000       1.52900000       0.15530000
Nd       1.52900000       1.66800000       0.93180000
Nd       5.42100000       1.66800000       0.93180000
Nd       1.52900000      12.37100000       3.10600000
Nd       5.42100000      12.37100000       3.10600000
Nd      10.42500000       8.47900000       3.57190000
Nd       3.47500000       1.52900000       4.19310000
Nd       8.47900000       5.42100000       4.65900000
Nd      12.37100000       5.42100000       4.65900000
Nd       8.47900000       8.61800000       6.83320000
Nd      12.37100000       8.61800000       6.83320000
Nd       3.47500000       8.47900000       7.60970000
Nd      10.42500000       5.42100000       7.92030000
Nd       1.52900000       5.28200000       8.69680000
Nd       5.42100000       5.28200000       8.69680000
Nd       1.52900000       8.47900000      10.87100000
Nd       5.42100000       8.47900000      10.87100000
Nd      10.42500000      12.37100000      11.33690000
Nd       3.47500000       5.42100000      11.95810000
Nd       8.47900000       1.52900000      12.42400000
Nd      12.37100000       1.52900000      12.42400000
Nd       8.47900000      12.23200000      14.59820000
Nd      12.37100000      12.23200000      14.59820000
Nd       3.47500000      12.37100000      15.37470000
27
Lattice="10.29 0.0 0.0 5.872642611472802 8.449625361985813 0.0 5.872642611472802 3.0701433635955073 7.8721273163538426" Properties=species:S:1:pos:R:3 wyckoff_letters="_JSON [\"f\", \"f\", \"f\", \"f\", \"f\", \"f\", \"f\", \"f\", \"f\", \"f\", \"f\", \"f\", \"f\", \"f\", \"f\", \"f\", \"f\", \"f\", \"c\", \"c\", \"b\", \"f\", \"f\", \"f\", \"f\", \"f\", \"f\"]" formula=Rb2BaTa6Cl18 source="Ba Cl Rb Ta | 27 |" target="A18B6C2D Ba Cl Rb Ta | BaRb2Ta6Cl18 | SG 148 R-3 | OX: CN:12;15;12;14 NN:3.13;2.58;3.38;2.52 NP:Ba-Cl:3.13;Cl-Cl:3.29;Cl-Rb:3.38;Cl-Ta:2.52;Rb-Ta:4.78;Ta-Ta:2.94 WP:b:1;f:18;c:2;f:6 | 10.29 10.29 10.29 55.2 55.2 55.2 | Cl f 0.33 0.92 0.08 Cl f 0.92 0.67 0.08 Cl f 0.68 0.47 0.15 Cl f 0.24 0.58 0.16 Cl f 0.58 0.16 0.24 Cl f 0.53 0.85 0.32 Cl f 0.92 0.08 0.33 Cl f 0.84 0.76 0.42 Cl f 0.15 0.68 0.47 Cl f 0.85 0.32 0.53 Cl f 0.16 0.24 0.58 Cl f 0.08 0.92 0.67 Cl f 0.47 0.15 0.68 Cl f 0.42 0.84 0.76 Cl f 0.76 0.42 0.84 Cl f 0.32 0.53 0.85 Cl f 0.08 0.33 0.92 Cl f 0.67 0.08 0.92 Rb c 0.22 0.22 0.22 Rb c 0.78 0.78 0.78 Ba b 0.50 0.50 0.50 Ta f 0.86 0.19 0.08 Ta f 0.81 0.92 0.14 Ta f 0.08 0.86 0.19 Ta f 0.92 0.14 0.81 Ta f 0.19 0.08 0.86 Ta f 0.14 0.81 0.92" pbc="T T T"
Cl       9.26834261       8.01926680       0.62977019
Cl      13.87128196       5.90686046       0.62977019
Cl      10.63823842       4.43184542       1.18081910
Cl       6.81535553       5.39200565       1.25954037
Cl       8.31725704       2.08877447       1.88931056
Cl      12.32469186       8.16462743       2.51908074
Cl      11.87458347       1.68911734       2.59780201
Cl      15.57331828       7.71117549       3.30629347
Cl       8.29703900       7.18871263       3.69989984
Cl      13.73824622       4.33105610       4.17222748
Cl       6.46196694       3.80859324       4.56583384
Cl      10.16070175       9.83065139       5.27432530
Cl       9.71059337       3.35514129       5.35304658
Cl      13.71802818       9.43099426       5.98281676
Cl      15.21992969       6.12776308       6.61258695
Cl      11.39704680       7.08792330       6.69130822
Cl       8.16400326       5.61290826       7.24235713
Cl      12.76694261       3.50050192       7.24235713
Rb       4.84776275       2.53434912       1.73186801
Rb      17.18752247       8.98541961       6.14025931
Ba      11.01764261       5.75988436       3.93606366
Ta      10.43501351       1.85104029       0.62977019
Ta      14.55990117       8.20347540       1.10209782
Ta       6.98947474       7.85000505       1.49570419
Ta      15.04581048       3.66976368       6.37642313
Ta       7.47538405       3.31629332       6.77002949
Ta      11.60027172       9.66872844       7.24235713
20
Lattice="4.09 0.0 0.0 0.0 4.09 0.0 0.0 0.0 20.82" Properties=species:S:1:pos:R:3 wyckoff_letters="_JSON [\"g\", \"g\", \"g\", \"g\", \"c\", \"i\", \"i\", \"h\", \"i\", \"i\", \"h\", \"e\", \"e\", \"h\", \"i\", \"i\", \"h\", \"i\", \"i\", \"a\"]" formula=Y4SnPd15 source="Pd Pm Y | 20 |" target="A15B4C Pd Sn Y | Pd15SnY4 | SG 123 P4/mmm | OX: CN:18;18;18;18;18;18 NN:2.89;2.90;2.89;2.89;2.91;2.89 NP:Pd-Pd:2.89;Pd-Sn:2.89;Pd-Y:2.89;Sn-Sn:4.09;Sn-Y:4.16;Y-Y:4.09 WP:c:1;e:2;h:4;i:8;a:1;g:4 | 4.09 4.09 20.82 90.0 90.0 90.0 | Y g 0.50 0.50 0.20 Y g 0.50 0.50 0.40 Y g 0.50 0.50 0.60 Y g 0.50 0.50 0.80 Pd c 0.00 0.00 0.00 Pd i 0.50 0.00 0.10 Pd i 0.00 0.50 0.10 Pd h 0.00 0.00 0.20 Pd i 0.50 0.00 0.30 Pd i 0.00 0.50 0.30 Pd h 0.00 0.00 0.40 Pd e 0.50 0.00 0.50 Pd e 0.00 0.50 0.50 Pd h 0.00 0.00 0.60 Pd i 0.50 0.00 0.70 Pd i 0.00 0.50 0.70 Pd h 0.00 0.00 0.80 Pd i 0.50 0.00 0.90 Pd i 0.00 0.50 0.90 Sn a 0.50 0.50 0.00" pbc="T T T"
Y        2.04500000       2.04500000       4.16400000
Y        2.04500000       2.04500000       8.32800000
Y        2.04500000       2.04500000      12.49200000
Y        2.04500000       2.04500000      16.65600000
Pd       0.00000000       0.00000000       0.00000000
Pd       2.04500000       0.00000000       2.08200000
Pd       0.00000000       2.04500000       2.08200000
Pd       0.00000000       0.00000000       4.16400000
Pd       2.04500000       0.00000000       6.24600000
Pd       0.00000000       2.04500000       6.24600000
Pd       0.00000000       0.00000000       8.32800000
Pd       2.04500000       0.00000000      10.41000000
Pd       0.00000000       2.04500000      10.41000000
Pd       0.00000000       0.00000000      12.49200000
Pd       2.04500000       0.00000000      14.57400000
Pd       0.00000000       2.04500000      14.57400000
Pd       0.00000000       0.00000000      16.65600000
Pd       2.04500000       0.00000000      18.73800000
Pd       0.00000000       2.04500000      18.73800000
Sn       2.04500000       2.04500000       0.00000000
25
Lattice="5.87 0.0 0.0 -2.5824429270542217 5.271421869714814 0.0 0.0 0.0 10.12" Properties=species:S:1:pos:R:3 wyckoff_letters="_JSON [\"l\", \"l\", \"l\", \"l\", \"l\", \"l\", \"l\", \"l\", \"l\", \"l\", \"l\", \"l\", \"l\", \"l\", \"l\", \"l\", \"k\", \"b\", \"k\", \"k\", \"a\", \"c\", \"k\", \"d\", \"k\"]" formula=Sm2Tm3V4O16 source="O Sm Tm V | 24 |" target="A16B4C3D O Sm Tm V | Sm3TmV4O16 | SG 21 C222 | OX:-2;+3;+3;+3;+3;+3;+3;+3 CN:38;38;40;38;38;38;42;42 NN:1.75;1.74;1.74;1.76;2.31;2.24;1.74;1.76;1.72 NP:O-O:2.48;O-Sm:2.31;O-Tm:2.24;O-V:1.72;Sm-Sm:4.05;Sm-Tm:3.88;Sm-V:3.18;Tm-V:3.18;V-V:3.89 WP:l:16;a:1;c:1;k:2;b:1;d:1;k:2;b:1;k:2 | 5.87 5.87 10.12 90.0 90.0 116.1 | O l 0.27 0.08 0.09 O l 0.73 0.92 0.09 O l 0.25 0.34 0.16 O l 0.75 0.66 0.16 O l 0.91 0.24 0.34 O l 0.09 0.76 0.34 O l 0.42 0.23 0.41 O l 0.58 0.77 0.41 O l 0.23 0.42 0.59 O l 0.77 0.58 0.59 O l 0.76 0.09 0.66 O l 0.24 0.91 0.66 O l 0.34 0.25 0.84 O l 0.66 0.75 0.84 O l 0.08 0.27 0.91 O l 0.92 0.73 0.91 V k 0.00 0.50 0.25 V b 0.50 0.50 0.50 V k 0.50 0.00 0.75 V k 0.50 0.00 0.75 Sm a 0.00 0.00 0.00 Sm c 0.50 0.50 0.00 Tm k 0.50 0.00 0.25 Tm d 0.00 0.00 0.50 Tm k 0.00 0.50 0.75" pbc="T T T"
O        1.37830457       0.42171375       0.91080000
O        1.90925251       4.84970812       0.91080000
O        0.58946940       1.79228344       1.61920000
O        2.69808767       3.47913843       1.61920000
O        4.72191370       1.26514125       3.44080000
O       -1.43435662       4.00628062       3.44080000
O        1.87143813       1.21242703       4.14920000
O        1.41611895       4.05899484       4.14920000
O        0.26547397       2.21399719       5.97080000
O        3.02208310       3.05742468       5.97080000
O        4.22878014       0.47442797       6.67920000
O       -0.94122306       4.79699390       6.67920000
O        1.35018927       1.31785547       8.50080000
O        1.93736780       3.95356640       8.50080000
O       -0.22765959       1.42328390       9.20920000
O        3.51521666       3.84813796       9.20920000
V       -1.29122146       2.63571093       2.53000000
V        1.64377854       2.63571093       5.06000000
V        2.93500000       0.00000000       7.59000000
V        2.93500000       0.00000000       7.59000000
Sm       0.00000000       0.00000000       0.00000000
Sm       1.64377854       2.63571093       0.00000000
Tm       2.93500000       0.00000000       2.53000000
Tm       0.00000000       0.00000000       5.06000000
Tm      -1.29122146       2.63571093       7.59000000
16
Lattice="5.52 0.0 0.0 -0.6836870165028768 5.568183910707817 0.0 -2.255679384998315 -2.1715217720724924 6.7711153959675485" Properties=species:S:1:pos:R:3 wyckoff_letters="_JSON [\"a\", \"a\", \"a\", \"a\", \"a\", \"a\", \"a\", \"a\", \"a\", \"a\", \"a\", \"a\", \"a\", \"a\", \"a\", \"a\"]" formula=Sr2V2SnGeO10 source="Ge O Sn Sr V | 16 |" target="A10B2C2DE Ge O Sn Sr V | SnSr2V2GeO10 | SG 1 P1 | OX:+4;-2;+4;+2;+5 CN:44;40;45;44;44 NN:1.78;1.88;1.90;1.90;2.48 NP:Ge-Ge:3.97;Ge-O:1.78;Ge-Sn:3.48;Ge-Sr:3.27;Ge-V:3.27;O-O:2.65;O-Sn:1.90;O-Sr:2.46;O-V:1.72;Sn-Sn:3.70;Sn-Sr:3.59;Sn-V:3.28;Sr-Sr:3.83;Sr-V:3.28;V-V:3.62 WP:a:1;a:10;a:1;a:2;a:2 | 5.52 5.61 7.46 104.6 107.6 97.0 | O a 0.25 0.38 0.08 O a 0.31 0.87 0.12 O a 0.84 0.82 0.15 O a 0.72 0.21 0.25 O a 0.18 0.69 0.41 O a 0.84 0.31 0.59 O a 0.29 0.79 0.74 O a 0.16 0.17 0.86 O a 0.69 0.13 0.88 O a 0.75 0.64 0.92 V a 0.12 0.10 0.25 V a 0.88 0.92 0.74 Ge a 0.68 0.81 0.13 Sr a 0.33 0.28 0.43 Sr a 0.68 0.73 0.56 Sn a 0.99 0.50 0.01" pbc="T T T"
O        0.93974458       1.94218814       0.54168923
O        0.84571077       4.58373739       0.81253385
O        3.73782474       4.24018254       1.01566731
O        3.26690588       0.62643818       1.69277885
O       -0.40297259       2.95172297       2.77615731
O        3.09400619       0.44493917       3.99495808
O       -0.60851549       2.79193918       5.01062539
O       -1.17291106      -0.92091746       5.82315924
O        1.73492283      -1.18707525       5.95858155
O        1.62721528       1.56583767       6.22942616
V        0.03011145       0.01393795       1.69277885
V        2.55940520       3.51580309       5.01062539
Ge       2.90657520       4.22793114       0.88024500
Sr       0.66022550       0.62533713       2.91157962
Sr       1.99132802       2.84872206       3.79182462
Sn       5.10039970       2.76237674       0.06771115
50
Lattice="6.52 0.0 0.0 0.0 7.37 0.0 0.0 1.591052697353994 10.27757516704415" Properties=species:S:1:pos:R:3 wyckoff_letters="_JSON [\"e\", \"f\", \"f\", \"e\", \"e\", \"e\", \"f\", \"f\", \"e\", \"e\", \"f\", \"f\", \"e\", \"e\", \"f\", \"f\", \"e\", \"e\", \"f\", \"f\", \"e\", \"e\", \"e\", \"f\", \"f\", \"e\", \"e\", \"e\", \"e\", \"f\", \"f\", \"e\", \"e\", \"f\", \"f\", \"f\", \"e\", \"e\", \"e\", \"b\", \"b\", \"f\", \"f\", \"d\", \"f\", \"f\", \"e\", \"e\", \"e\", \"e\"]" formula=Na11Cr2Fe5BiAs3(O13F)2 source="As Cr F Fe Na O | 48 |" target="A13B5C2D2EF As Cr F Fe Na O | Cr2Fe4Na10As2F4O26 | SG 11 P2_1/m | OX:+5;+5;+5;+3;+3;+1;+1;+1;-2;-2 CN:42;46;32;42;38;44;42;38;39;40 NN:1.68;1.99;1.92;1.97;2.07;1.95;2.36;2.27;1.82;1.69 NP:As-As:4.64;As-Cr:3.39;As-F:3.49;As-Fe:3.38;As-Na:3.22;As-O:1.68;Cr-F:1.99;Cr-Fe:3.77;Cr-Na:3.46;Cr-O:1.99;F-F:4.64;F-Fe:1.96;F-Na:2.30;F-O:2.67;Fe-Fe:3.68;Fe-Na:3.14;Fe-O:1.95;Na-Na:3.25;Na-O:2.29;O-O:2.64 WP:e:2;b:2;d:2;e:2;f:4;e:2;f:8;e:14;f:12;e:4 | 6.52 7.37 10.40 81.2 90.0 90.0 | O e 0.75 0.27 0.06 O f 0.55 0.85 0.09 O f 0.95 0.85 0.09 O e 0.25 0.43 0.11 O e 0.25 0.92 0.12 O e 0.75 0.46 0.21 O f 0.56 0.10 0.23 O f 0.94 0.10 0.23 O e 0.75 0.79 0.41 O e 0.25 0.95 0.42 O f 0.06 0.70 0.43 O f 0.44 0.70 0.43 O e 0.25 0.42 0.45 O e 0.75 0.58 0.55 O f 0.56 0.30 0.57 O f 0.94 0.30 0.57 O e 0.75 0.05 0.58 O e 0.25 0.21 0.59 O f 0.06 0.90 0.77 O f 0.44 0.90 0.77 O e 0.25 0.54 0.79 O e 0.75 0.08 0.88 O e 0.75 0.57 0.89 O f 0.05 0.15 0.91 O f 0.45 0.15 0.91 O e 0.25 0.73 0.94 F e 0.25 0.20 0.27 F e 0.75 0.80 0.73 Na e 0.25 0.04 0.36 Na f 0.51 0.62 0.27 Na f 0.99 0.62 0.27 Na e 0.75 0.36 0.37 Na e 0.25 0.64 0.63 Na f 0.01 0.38 0.73 Na f 0.49 0.38 0.73 Na f 0.01 0.38 0.73 Na e 0.75 0.96 0.64 Na e 0.75 0.67 0.01 Na e 0.25 0.33 0.99 Cr b 0.00 0.50 0.00 Cr b 0.50 0.50 0.00 Fe f 0.50 0.91 0.27 Fe f 1.00 0.91 0.27 Fe d 0.00 0.50 0.50 Fe f 0.00 0.09 0.73 Fe f 0.50 0.09 0.73 As e 0.25 0.77 0.05 As e 0.75 0.76 0.50 As e 0.25 0.24 0.50 Bi e 0.75 0.23 0.95" pbc="T T T"
O        4.89000000       2.08536316       0.61665451
O        3.58600000       6.40769474       0.92498177
O        6.19400000       6.40769474       0.92498177
O        1.63000000       3.34411580       1.13053327
O        1.63000000       6.97132632       1.23330902
O        4.89000000       3.72432107       2.15829079
O        3.65120000       1.10294212       2.36384229
O        6.12880000       1.10294212       2.36384229
O        4.89000000       6.47463161       4.21380582
O        1.63000000       7.66974213       4.31658157
O        0.39120000       5.84315266       4.41935732
O        2.86880000       5.84315266       4.41935732
O        1.63000000       3.81137371       4.62490883
O        4.89000000       5.14967898       5.65266634
O        3.65120000       3.11790004       5.85821785
O        6.12880000       3.11790004       5.85821785
O        4.89000000       1.29131056       5.96099360
O        1.63000000       2.48642109       6.06376935
O        0.39120000       7.85811058       7.91373288
O        2.86880000       7.85811058       7.91373288
O        1.63000000       5.23673163       8.11928438
O        4.89000000       1.98972637       9.04426615
O        4.89000000       5.61693690       9.14704190
O        0.32600000       2.55335795       9.35259340
O        2.93400000       2.55335795       9.35259340
O        1.63000000       6.87568954       9.66092066
F        1.63000000       1.90358423       2.77494530
F        4.89000000       7.05746847       7.50262987
Na       1.63000000       0.86757897       3.69992706
Na       3.32520000       4.99898423       2.77494530
Na       6.45480000       4.99898423       2.77494530
Na       4.89000000       3.24188950       3.80270281
Na       1.63000000       5.71916320       6.47487236
Na       0.06520000       3.96206847       7.50262987
Na       3.19480000       3.96206847       7.50262987
Na       0.06520000       3.96206847       7.50262987
Na       4.89000000       8.09347373       6.57764811
Na       4.89000000       4.95381053       0.10277575
Na       1.63000000       4.00724217      10.17479942
Cr       0.00000000       3.68500000       0.00000000
Cr       3.26000000       3.68500000       0.00000000
Fe       3.26000000       7.13628423       2.77494530
Fe       6.52000000       7.13628423       2.77494530
Fe       0.00000000       4.48052635       5.13878758
Fe       0.00000000       1.82476847       7.50262987
Fe       3.26000000       1.82476847       7.50262987
As       1.63000000       5.75445263       0.51387876
As       4.89000000       6.39672635       5.13878758
As       1.63000000       2.56432635       5.13878758
Bi       4.89000000       3.20660006       9.76369641
9
Lattice="7.59 0.0 0.0 -3.794999999999998 6.573132814723889 0.0 0.0 0.0 4.65" Properties=species:S:1:pos:R:3 wyckoff_letters="_JSON [\"f\", \"f\", \"f\", \"b\", \"c\", \"c\", \"g\", \"g\", \"g\"]" formula=Th3Mg3Sn2Ru source="Mg Ru Sn Th | 9 |" target="A3B3C2D Mg Ru Sn Th | Mg3RuSn2Th3 | SG 189 P-62m | OX: CN:16;26;18;16 NN:2.92;2.92;3.02;2.98 NP:Mg-Mg:3.01;Mg-Ru:2.92;Mg-Sn:3.02;Mg-Th:3.51;Ru-Ru:4.65;Ru-Sn:4.94;Ru-Th:2.98;Sn-Sn:4.38;Sn-Th:3.27;Th-Th:4.00 WP:f:3;b:1;c:2;g:3 | 7.59 7.59 4.65 90.0 90.0 120.0 | Mg f 0.23 0.00 0.00 Mg f 0.00 0.23 0.00 Mg f 0.77 0.77 0.00 Ru b 0.00 0.00 0.50 Sn c 0.67 0.33 0.00 Sn c 0.33 0.67 0.00 Th g 0.39 0.39 0.50 Th g 1.00 0.61 0.50 Th g 0.61 1.00 0.50" pbc="T T T"
Mg       1.74570000       0.00000000       0.00000000
Mg      -0.87285000       1.51182055       0.00000000
Mg       2.92215000       5.06131227       0.00000000
Ru       0.00000000       0.00000000       2.32500000
Sn       3.83295000       2.16913383       0.00000000
Sn      -0.03795000       4.40399899       0.00000000
Th       1.48005000       2.56352180       2.32500000
Th       5.27505000       4.00961102       2.32500000
Th       0.83490000       6.57313281       2.32500000
12
Lattice="5.33 0.0 0.0 -2.673052229059906 4.611257071636525 0.0 0.8988873310829402 1.5600609870453297 6.287273755986591" Properties=species:S:1:pos:R:3 wyckoff_letters="_JSON [\"b\", \"i\", \"j\", \"j\", \"j\", \"j\", \"i\", \"g\", \"g\", \"c\", \"h\", \"h\"]" formula=LiAg3(PdO3)2 source="Ag Li O Pd | 12 |" target="A6B3C2D Ag Li O Pd | Ag3LiPd2O6 | SG 12 C2/m | OX:+1;+1;+1;-2;-2;+4 CN:38;38;42;35;35;42 NN:2.12;2.12;2.10;2.12;2.02;2.02 NP:Ag-Ag:3.02;Ag-Li:3.64;Ag-O:2.12;Ag-Pd:3.61;Li-O:2.10;Li-Pd:3.08;O-O:2.67;O-Pd:2.02;Pd-Pd:3.08 WP:c:1;h:2;b:1;i:2;j:4;g:2 | 5.33 5.33 6.54 82.1 82.1 120.1 | Li b 0.50 0.50 0.50 O i 0.90 0.90 0.33 O j 0.56 0.20 0.33 O j 0.20 0.56 0.33 O j 0.80 0.44 0.67 O j 0.44 0.80 0.67 O i 0.10 0.10 0.67 Pd g 0.83 0.17 0.50 Pd g 0.17 0.83 0.50 Ag c 0.00 0.00 0.00 Ag h 0.67 0.33 0.00 Ag h 0.33 0.67 0.00" pbc="T T T"
Li       1.77791755       3.08565903       3.14363688
O        2.68788581       4.66495149       2.07480034
O        2.74682237       1.43707154       2.07480034
O       -0.13427643       3.09712409       2.07480034
O        3.69011153       3.07419397       4.21247342
O        0.80901273       4.73424652       4.21247342
O        0.86794929       1.50636657       4.21247342
Pd       4.41892479       1.56394420       3.14363688
Pd      -0.86308968       4.60737386       3.14363688
Ag       0.00000000       0.00000000       0.00000000
Ag       2.68899276       1.52171483       0.00000000
Ag      -0.03204499       3.08954224       0.00000000
13
Lattice="4.72 0.0 0.0 2.3600000000000003 4.08763990586255 0.0 2.823868873686309 1.6303614543789957 10.337953671413933" Properties=species:S:1:pos:R:3 wyckoff_letters="_JSON [\"a\", \"c\", \"c\", \"c\", \"c\", \"c\", \"c\", \"c\", \"c\", \"c\", \"c\", \"c\", \"c\"]" formula=Nb7W6 source="Nb W | 13 |" target="A7B6 Nb W | Nb7W6 | SG 166 R-3m | OX: CN:26;26;26 NN:2.78;2.76;2.76 NP:Nb-Nb:2.76;Nb-W:2.72;W-W:2.71 WP:a:1;c:6;c:6 | 4.72 4.72 10.84 74.9 74.9 60.0 | Nb a 0.00 0.00 0.00 Nb c 0.64 0.64 0.07 Nb c 0.92 0.92 0.23 Nb c 0.55 0.55 0.36 Nb c 0.45 0.45 0.64 Nb c 0.08 0.08 0.77 Nb c 0.36 0.36 0.93 W c 0.32 0.32 0.16 W c 0.24 0.24 0.29 W c 0.86 0.86 0.43 W c 0.14 0.14 0.57 W c 0.76 0.76 0.71 W c 0.68 0.68 0.84" pbc="T T T"
Nb       0.00000000       0.00000000       0.00000000
Nb       4.72887082       2.73021484       0.72365676
Nb       7.16308984       4.13561185       2.37772934
Nb       4.91059279       2.83513207       3.72166332
Nb       4.99327608       2.88286929       6.61629035
Nb       2.74077903       1.58238951       7.96022433
Nb       5.17499805       2.98778652       9.61429691
W        2.71741902       1.56890260       1.65407259
W        2.51812197       1.45383840       2.99800656
W        7.30306362       4.21642574       4.44532008
W        2.60080526       1.50157562       5.89263359
W        7.38574690       4.26416296       7.33994711
W        7.18644985       4.14909876       8.68388108
34
Lattice="8.98 0.0 0.0 4.771959244072384 7.607154854011592 0.0 4.771959244072384 2.639698989970309 7.13447925326452" Properties=species:S:1:pos:R:3 wyckoff_letters="_JSON [\"b\", \"b\", \"b\", \"b\", \"b\", \"b\", \"b\", \"b\", \"b\", \"b\", \"b\", \"b\", \"b\", \"b\", \"b\", \"b\", \"b\", \"b\", \"b\", \"b\", \"b\", \"b\", \"b\", \"b\", \"b\", \"b\", \"b\", \"b\", \"b\", \"b\", \"a\", \"a\", \"a\", \"a\"]" formula=HfP3WO12 source="Hf O P W | 34 |" target="A12B3CD Hf O P W | Hf2W2O24P6 | SG 161 R3c | OX:+4;-2;+5;+6 CN:32;31;33;31 NN:2.06;1.54;1.54;1.91 NP:Hf-O:2.06;Hf-P:3.46;Hf-W:4.86;O-O:2.50;O-P:1.54;O-W:1.91;P-P:4.35;P-W:3.50 WP:a:2;b:24;b:6;a:2 | 8.98 8.98 8.98 57.9 57.9 57.9 | O b 0.64 0.76 0.01 O b 0.30 0.94 0.05 O b 0.92 0.70 0.09 O b 0.51 0.26 0.14 O b 0.42 0.59 0.20 O b 0.00 0.36 0.22 O b 0.14 0.51 0.26 O b 0.94 0.05 0.30 O b 0.22 0.00 0.36 O b 0.80 0.55 0.42 O b 0.59 0.20 0.42 O b 0.79 0.86 0.50 O b 0.26 0.14 0.51 O b 0.44 0.80 0.55 O b 0.20 0.42 0.59 O b 0.76 0.01 0.64 O b 0.09 0.92 0.70 O b 0.86 0.50 0.72 O b 0.01 0.64 0.76 O b 0.55 0.44 0.80 O b 0.50 0.72 0.86 O b 0.05 0.30 0.92 O b 0.70 0.09 0.92 O b 0.36 0.29 1.00 P b 0.46 0.76 0.03 P b 0.96 0.53 0.26 P b 0.76 0.03 0.46 P b 0.26 0.96 0.53 P b 0.03 0.46 0.76 P b 0.53 0.26 0.96 Hf a 0.14 0.14 0.14 Hf a 0.64 0.64 0.64 W a 0.36 0.36 0.36 W a 0.86 0.86 0.86" pbc="T T T"
O        9.42160862       5.80783468       0.07134479
O        7.41823965       7.28271051       0.35672396
O       12.03144780       5.56258131       0.64210313
O        6.48858370       2.34741812       0.99882710
O        7.54144780       5.01616116       1.42689585
O        2.76773636       3.31930953       1.56958544
O        4.93160862       4.56597071       1.85496461
O       10.11138574       1.17226744       2.14034378
O        3.69350533       0.95029164       2.56841253
O       11.81280047       5.29260875       2.99648129
O        8.25681473       2.63010455       2.99648129
O       13.58406457       7.86200267       3.56723963
O        5.43657351       2.41124816       3.63858442
O       10.39334498       7.53755833       3.92396359
O        6.61567884       4.75242744       4.20934276
O        9.92657351       1.76547890       4.56606672
O        8.53877398       8.84637176       4.99413548
O       13.54459028       5.70416070       5.13682506
O        6.77054294       6.87475034       5.42220423
O       10.85622946       5.45890733       5.70758340
O       12.02969561       7.74729263       6.13565216
O        6.27079028       4.71066953       6.56372091
O       11.10567884       3.11316701       6.56372091
O        9.38862742       4.84577390       7.13447925
P        7.90064780       5.86062866       0.21403438
P       12.39064780       4.71811381       1.85496461
P        9.16306003       1.44247618       3.28186046
P        9.44501927       8.70190912       3.78127400
P        6.09119028       5.50546247       5.42220423
P       10.58119028       4.51197129       6.84910008
Hf       2.59334859       1.43455954       0.99882710
Hf      11.85530783       6.55798646       4.56606672
W        6.66861066       3.68886738       2.56841253
W       15.93056990       8.81229431       6.13565216
20
Lattice="3.07 0.0 0.0 0.0 9.48 0.0 0.0 0.0 9.48" Properties=species:S:1:pos:R:3 wyckoff_letters="_JSON [\"g\", \"g\", \"g\", \"g\", \"g\", \"g\", \"g\", \"g\", \"c\", \"j\", \"j\", \"j\", \"j\", \"c\", \"j\", \"j\", \"j\", \"j\", \"a\", \"a\"]" formula=Zr2TaB2Ru5 source="B Ru Ta Zr | 20 |" target="A5B2C2D B Ru Ta Zr | Ru10Ta2Zr4B4 | SG 127 P4/mbm | OX: CN:44;42;37;42;38 NN:2.22;2.25;2.22;2.63;2.72 NP:B-B:3.07;B-Ru:2.22;B-Ta:3.83;B-Zr:2.72;Ru-Ru:2.77;Ru-Ta:2.63;Ru-Zr:2.83;Ta-Ta:3.07;Ta-Zr:3.51;Zr-Zr:3.07 WP:g:4;c:2;j:8;a:2;g:4 | 3.07 9.48 9.48 90.0 90.0 90.0 | B g 0.00 0.38 0.12 B g 0.00 0.88 0.38 B g 0.00 0.12 0.62 B g 0.00 0.62 0.88 Zr g 0.00 0.68 0.18 Zr g 0.00 0.18 0.32 Zr g 0.00 0.82 0.68 Zr g 0.00 0.32 0.82 Ru c 0.50 0.50 0.00 Ru j 0.50 0.22 0.07 Ru j 0.50 0.93 0.22 Ru j 0.50 0.43 0.28 Ru j 0.50 0.72 0.43 Ru c 0.50 0.00 0.50 Ru j 0.50 0.28 0.57 Ru j 0.50 0.57 0.72 Ru j 0.50 0.07 0.78 Ru j 0.50 0.78 0.93 Ta a 0.00 0.00 0.00 Ta a 0.00 0.50 0.50" pbc="T T T"
B        0.00000000       3.60240000       1.13760000
B        0.00000000       8.34240000       3.60240000
B        0.00000000       1.13760000       5.87760000
B        0.00000000       5.87760000       8.34240000
Zr       0.00000000       6.44640000       1.70640000
Zr       0.00000000       1.70640000       3.03360000
Zr       0.00000000       7.77360000       6.44640000
Zr       0.00000000       3.03360000       7.77360000
Ru       1.53500000       4.74000000       0.00000000
Ru       1.53500000       2.08560000       0.66360000
Ru       1.53500000       8.81640000       2.08560000
Ru       1.53500000       4.07640000       2.65440000
Ru       1.53500000       6.82560000       4.07640000
Ru       1.53500000       0.00000000       4.74000000
Ru       1.53500000       2.65440000       5.40360000
Ru       1.53500000       5.40360000       6.82560000
Ru       1.53500000       0.66360000       7.39440000
Ru       1.53500000       7.39440000       8.81640000
Ta       0.00000000       0.00000000       0.00000000
Ta       0.00000000       4.74000000       4.74000000
14
Lattice="7.38 0.0 0.0 5.893930064149021 4.4413948708621165 0.0 2.282142537127551 0.7635942113594647 6.817745178621107" Properties=species:S:1:pos:R:3 wyckoff_letters="_JSON [\"a\", \"b\", \"b\", \"a\", \"a\", \"b\", \"b\", \"a\", \"b\", \"b\", \"b\", \"a\", \"a\", \"a\"]" formula=Y8Ir2Rh3Au source="Au Ir Rh Y | 16 |" target="A8B4C3D Au Ir Rh Y | AuIr4Y8 | SG 8 Cm | OX: CN:23;20;19;20;20;19 NN:3.07;3.05;2.93;2.94;2.96;2.94 NP:Au-Au:4.92;Au-Ir:3.48;Au-Rh:3.62;Au-Y:3.07;Ir-Ir:4.92;Ir-Rh:3.01;Ir-Y:2.95;Rh-Rh:3.38;Rh-Y:2.92;Y-Y:3.45 WP:a:1;a:1;a:2;b:2;a:4;b:4 | 7.38 7.38 7.23 71.6 71.6 37.0 | Y a 0.37 0.37 0.02 Y b 0.81 0.32 0.19 Y b 0.32 0.81 0.19 Y a 0.87 0.87 0.47 Y a 0.37 0.37 0.52 Y b 0.82 0.19 0.69 Y b 0.19 0.82 0.69 Y a 0.87 0.87 0.98 Rh b 0.60 0.09 0.41 Rh b 0.09 0.60 0.41 Rh b 0.91 0.40 0.91 Ir a 0.09 0.09 0.18 Ir a 0.60 0.60 0.60 Au a 0.60 0.60 0.19" pbc="T T T"
Y        4.95699697       1.65858799       0.13635490
Y        8.29746470       1.56632926       1.29537158
Y        7.56929043       3.74261275       1.29537158
Y       12.62092615       4.22290282       3.20434023
Y        6.09806824       2.04038509       3.54522749
Y        8.74612506       1.37074503       4.70424417
Y        7.80990100       4.16882380       4.70424417
Y       13.78481884       4.61233586       6.68139028
Rh       5.89413215       0.71279917       2.79527552
Rh       5.13623648       2.97791055       2.79527552
Rh      11.15012173       2.47142868       6.20414811
Ir       1.60543936       0.53717250       1.22719413
Ir       9.33364356       3.12299345       4.09064711
Au       8.39796512       2.80991982       1.29537158
54
Lattice="9.83 0.0 0.0 -4.914999999999998 8.513029719201032 0.0 0.0 0.0 18.41" Properties=species:S:1:pos:R:3 wyckoff_letters="_JSON [\"i\", \"i\", \"i\", \"i\", \"i\", \"i\", \"i\", \"i\", \"i\", \"i\", \"i\", \"i\", \"i\", \"i\", \"i\", \"i\", \"i\", \"i\", \"i\", \"i\", \"i\", \"i\", \"i\", \"i\", \"i\", \"i\", \"i\", \"i\", \"i\", \"i\", \"i\", \"i\", \"i\", \"i\", \"i\", \"i\", \"b\", \"b\", \"d\", \"d\", \"c\", \"c\", \"i\", \"i\", \"i\", \"i\", \"i\", \"i\", \"i\", \"i\", \"i\", \"i\", \"i\", \"i\"]" formula=CsErHf6FeCl18 source="Cl Cs Er Fe Hf | 54 |" target="A18B6CDE Cl Cs Er Fe Hf | Cs2Er2Fe2Hf12Cl36 | SG 163 P-31c | OX:-1;+1;+3;+2;+2 CN:16;12;12;18;17 NN:2.60;4.07;2.66;2.32;2.42 NP:Cl-Cl:3.51;Cl-Cs:4.07;Cl-Er:2.66;Cl-Fe:3.60;Cl-Hf:2.55;Fe-Hf:2.42;Hf-Hf:3.37 WP:i:36;d:2;c:2;b:2;i:12 | 9.83 9.83 18.41 90.0 90.0 120.0 | Cl i 0.42 0.13 0.00 Cl i 0.87 0.29 0.00 Cl i 0.71 0.58 0.00 Cl i 0.82 0.06 0.16 Cl i 0.24 0.18 0.16 Cl i 0.94 0.76 0.16 Cl i 0.10 0.46 0.17 Cl i 0.54 0.64 0.17 Cl i 0.36 0.90 0.17 Cl i 0.36 0.46 0.33 Cl i 0.10 0.64 0.33 Cl i 0.54 0.90 0.33 Cl i 0.24 0.06 0.34 Cl i 0.94 0.18 0.34 Cl i 0.82 0.76 0.34 Cl i 0.71 0.13 0.50 Cl i 0.42 0.29 0.50 Cl i 0.87 0.58 0.50 Cl i 0.13 0.42 0.50 Cl i 0.58 0.71 0.50 Cl i 0.29 0.87 0.50 Cl i 0.18 0.24 0.66 Cl i 0.06 0.82 0.66 Cl i 0.76 0.94 0.66 Cl i 0.46 0.10 0.67 Cl i 0.90 0.36 0.67 Cl i 0.64 0.54 0.67 Cl i 0.64 0.10 0.83 Cl i 0.46 0.36 0.83 Cl i 0.90 0.54 0.83 Cl i 0.06 0.24 0.84 Cl i 0.76 0.82 0.84 Cl i 0.18 0.94 0.84 Cl i 0.29 0.42 1.00 Cl i 0.13 0.71 1.00 Cl i 0.58 0.87 1.00 Fe b 0.00 0.00 0.00 Fe b 0.00 0.00 0.50 Cs d 0.67 0.33 0.25 Cs d 0.33 0.67 0.75 Er c 0.33 0.67 0.25 Er c 0.67 0.33 0.75 Hf i 0.05 0.22 0.07 Hf i 0.78 0.83 0.07 Hf i 0.17 0.95 0.07 Hf i 0.17 0.22 0.43 Hf i 0.05 0.83 0.43 Hf i 0.78 0.95 0.43 Hf i 0.22 0.05 0.57 Hf i 0.95 0.17 0.57 Hf i 0.83 0.78 0.57 Hf i 0.83 0.05 0.93 Hf i 0.22 0.17 0.93 Hf i 0.95 0.78 0.93" pbc="T T T"
Cl       3.48965000       1.10669386       0.00000000
Cl       7.12675000       2.46877862       0.00000000
Cl       4.12860000       4.93755724       0.00000000
Cl       7.76570000       0.51078178       2.94560000
Cl       1.47450000       1.53234535       2.94560000
Cl       5.50480000       6.46990259       2.94560000
Cl      -1.27790000       3.91599367       3.12970000
Cl       2.16260000       5.44833902       3.12970000
Cl      -0.88470000       7.66172675       3.12970000
Cl       1.27790000       3.91599367       6.07530000
Cl      -2.16260000       5.44833902       6.07530000
Cl       0.88470000       7.66172675       6.07530000
Cl       2.06430000       0.51078178       6.25940000
Cl       8.35550000       1.53234535       6.25940000
Cl       4.32520000       6.46990259       6.25940000
Cl       6.34035000       1.10669386       9.20500000
Cl       2.70325000       2.46877862       9.20500000
Cl       5.70140000       4.93755724       9.20500000
Cl      -0.78640000       3.57547248       9.20500000
Cl       2.21175000       6.04425110       9.20500000
Cl      -1.42535000       7.40633586       9.20500000
Cl       0.58980000       2.04312713      12.15060000
Cl      -3.44050000       6.98068437      12.15060000
Cl       2.85070000       8.00224794      12.15060000
Cl       4.03030000       0.85130297      12.33470000
Cl       7.07760000       3.06469070      12.33470000
Cl       3.63710000       4.59703605      12.33470000
Cl       5.79970000       0.85130297      15.28030000
Cl       2.75240000       3.06469070      15.28030000
Cl       6.19290000       4.59703605      15.28030000
Cl      -0.58980000       2.04312713      15.46440000
Cl       3.44050000       6.98068437      15.46440000
Cl      -2.85070000       8.00224794      15.46440000
Cl       0.78640000       3.57547248      18.41000000
Cl      -2.21175000       6.04425110      18.41000000
Cl       1.42535000       7.40633586      18.41000000
Fe       0.00000000       0.00000000       0.00000000
Fe       0.00000000       0.00000000       9.20500000
Cs       4.96415000       2.80929981       4.60250000
Cs      -0.04915000       5.70372991      13.80750000
Er      -0.04915000       5.70372991       4.60250000
Er       4.96415000       2.80929981      13.80750000
Hf      -0.58980000       1.87286654       1.28870000
Hf       3.58795000       7.06581467       1.28870000
Hf      -2.99815000       8.08737823       1.28870000
Hf       0.58980000       1.87286654       7.91630000
Hf      -3.58795000       7.06581467       7.91630000
Hf       2.99815000       8.08737823       7.91630000
Hf       1.91685000       0.42565149      10.49370000
Hf       8.50295000       1.44721505      10.49370000
Hf       4.32520000       6.64016318      10.49370000
Hf       7.91315000       0.42565149      17.12130000
Hf       1.32705000       1.44721505      17.12130000
Hf       5.50480000       6.64016318      17.12130000
68
Lattice="6.55 0.0 0.0 0.0 11.57 0.0 0.0 0.0 11.7" Properties=species:S:1:pos:R:3 wyckoff_letters="_JSON [\"c\", \"c\", \"c\", \"c\", \"c\", \"c\", \"c\", \"c\", \"c\", \"c\", \"c\", \"c\", \"c\", \"c\", \"c\", \"c\", \"c\", \"c\", \"c\", \"c\", \"c\", \"c\", \"c\", \"c\", \"c\", \"c\", \"c\", \"c\", \"c\", \"c\", \"c\", \"c\", \"c\", \"c\", \"c\", \"c\", \"c\", \"c\", \"c\", \"c\", \"c\", \"c\", \"c\", \"c\", \"c\", \"c\", \"c\", \"c\", \"c\", \"c\", \"c\", \"c\", \"c\", \"c\", \"c\", \"c\", \"c\", \"c\", \"c\", \"c\", \"c\", \"c\", \"c\", \"c\", \"a\", \"b\", \"b\", \"a\"]" formula=Sr2B5IO9 source="B I O Sr | 68 |" target="A9B5C2D B I O Sr | Sr8B20I4O36 | SG 34 Pnn2 | OX:+3;-1;-1;-2;+2 CN:35;40;40;37;42 NN:1.43;3.20;3.13;1.41;2.55 NP:B-B:2.46;B-I:3.64;B-O:1.37;B-Sr:3.11;I-O:3.33;I-Sr:3.13;O-O:2.33;O-Sr:2.53;Sr-Sr:4.08 WP:c:20;a:2;b:2;c:36;c:8 | 6.55 11.57 11.70 90.0 90.0 90.0 | B c 0.16 0.27 0.04 B c 0.31 0.71 0.18 B c 0.13 0.28 0.21 B c 0.46 0.18 0.23 B c 0.19 0.51 0.23 B c 0.69 0.01 0.27 B c 0.96 0.68 0.27 B c 0.63 0.78 0.29 B c 0.81 0.21 0.32 B c 0.66 0.77 0.46 B c 0.66 0.23 0.54 B c 0.81 0.79 0.68 B c 0.63 0.22 0.71 B c 0.96 0.32 0.73 B c 0.69 0.99 0.73 B c 0.19 0.49 0.77 B c 0.46 0.82 0.77 B c 0.13 0.72 0.79 B c 0.31 0.29 0.82 B c 0.16 0.73 0.96 O c 0.40 0.73 0.07 O c 0.16 0.29 0.08 O c 0.50 0.23 0.11 O c 0.09 0.74 0.19 O c 0.34 0.58 0.21 O c 0.50 0.05 0.22 O c 0.91 0.28 0.23 O c 0.74 0.69 0.24 O c 0.74 0.89 0.24 O c 0.24 0.39 0.26 O c 0.24 0.19 0.26 O c 0.41 0.78 0.27 O c 0.00 0.55 0.28 O c 0.84 0.08 0.29 O c 0.59 0.24 0.31 O c 1.00 0.73 0.39 O c 0.66 0.79 0.42 O c 0.90 0.23 0.43 O c 0.90 0.77 0.57 O c 0.66 0.21 0.58 O c 1.00 0.27 0.61 O c 0.59 0.76 0.69 O c 0.84 0.92 0.71 O c 0.00 0.45 0.72 O c 0.41 0.22 0.73 O c 0.24 0.81 0.74 O c 0.24 0.61 0.74 O c 0.74 0.11 0.76 O c 0.74 0.31 0.76 O c 0.91 0.72 0.77 O c 0.50 0.95 0.78 O c 0.34 0.42 0.79 O c 0.09 0.26 0.81 O c 0.50 0.77 0.89 O c 0.16 0.71 0.92 O c 0.40 0.27 0.93 Sr c 0.80 0.77 0.04 Sr c 0.65 0.45 0.24 Sr c 0.15 0.95 0.26 Sr c 0.30 0.27 0.46 Sr c 0.30 0.73 0.54 Sr c 0.15 0.05 0.74 Sr c 0.65 0.55 0.76 Sr c 0.80 0.23 0.96 I a 0.05 0.00 0.00 I b 0.85 0.50 0.00 I b 0.35 0.00 0.50 I a 0.55 0.50 0.50" pbc="T T T"
B        1.04800000       3.12390000       0.46800000
B        2.03050000       8.21470000       2.10600000
B        0.85150000       3.23960000       2.45700000
B        3.01300000       2.08260000       2.69100000
B        1.24450000       5.90070000       2.69100000
B        4.51950000       0.11570000       3.15900000
B        6.28800000       7.86760000       3.15900000
B        4.12650000       9.02460000       3.39300000
B        5.30550000       2.42970000       3.74400000
B        4.32300000       8.90890000       5.38200000
B        4.32300000       2.66110000       6.31800000
B        5.30550000       9.14030000       7.95600000
B        4.12650000       2.54540000       8.30700000
B        6.28800000       3.70240000       8.54100000
B        4.51950000      11.45430000       8.54100000
B        1.24450000       5.66930000       9.00900000
B        3.01300000       9.48740000       9.00900000
B        0.85150000       8.33040000       9.24300000
B        2.03050000       3.35530000       9.59400000
B        1.04800000       8.44610000      11.23200000
O        2.62000000       8.44610000       0.81900000
O        1.04800000       3.35530000       0.93600000
O        3.27500000       2.66110000       1.28700000
O        0.58950000       8.56180000       2.22300000
O        2.22700000       6.71060000       2.45700000
O        3.27500000       0.57850000       2.57400000
O        5.96050000       3.23960000       2.69100000
O        4.84700000       7.98330000       2.80800000
O        4.84700000      10.29730000       2.80800000
O        1.57200000       4.51230000       3.04200000
O        1.57200000       2.19830000       3.04200000
O        2.68550000       9.02460000       3.15900000
O        0.00000000       6.36350000       3.27600000
O        5.50200000       0.92560000       3.39300000
O        3.86450000       2.77680000       3.62700000
O        6.55000000       8.44610000       4.56300000
O        4.32300000       9.14030000       4.91400000
O        5.89500000       2.66110000       5.03100000
O        5.89500000       8.90890000       6.66900000
O        4.32300000       2.42970000       6.78600000
O        6.55000000       3.12390000       7.13700000
O        3.86450000       8.79320000       8.07300000
O        5.50200000      10.64440000       8.30700000
O        0.00000000       5.20650000       8.42400000
O        2.68550000       2.54540000       8.54100000
O        1.57200000       9.37170000       8.65800000
O        1.57200000       7.05770000       8.65800000
O        4.84700000       1.27270000       8.89200000
O        4.84700000       3.58670000       8.89200000
O        5.96050000       8.33040000       9.00900000
O        3.27500000      10.99150000       9.12600000
O        2.22700000       4.85940000       9.24300000
O        0.58950000       3.00820000       9.47700000
O        3.27500000       8.90890000      10.41300000
O        1.04800000       8.21470000      10.76400000
O        2.62000000       3.12390000      10.88100000
Sr       5.24000000       8.90890000       0.46800000
Sr       4.25750000       5.20650000       2.80800000
Sr       0.98250000      10.99150000       3.04200000
Sr       1.96500000       3.12390000       5.38200000
Sr       1.96500000       8.44610000       6.31800000
Sr       0.98250000       0.57850000       8.65800000
Sr       4.25750000       6.36350000       8.89200000
Sr       5.24000000       2.66110000      11.23200000
I        0.32750000       0.00000000       0.00000000
I        5.56750000       5.78500000       0.00000000
I        2.29250000       0.00000000       5.85000000
I        3.60250000       5.78500000       5.85000000
12
Lattice="4.27 0.0 0.0 0.0 6.81 0.0 0.0 0.0 7.73" Properties=species:S:1:pos:R:3 wyckoff_letters="_JSON [\"a\", \"b\", \"b\", \"a\", \"b\", \"a\", \"a\", \"b\", \"b\", \"b\", \"a\", \"a\"]" formula=Y2Al2IrPt source="Al Ir Pt Y | 12 |" target="A2B2CD Al Ir Pt Y | Al4Ir2Pt2Y4 | SG 26 Pmc2_1 | OX: CN:22;23;24;24;21;21 NN:2.58;2.62;2.58;2.61;2.86;2.91 NP:Al-Al:3.06;Al-Ir:2.58;Al-Pt:2.61;Al-Y:3.07;Ir-Ir:4.14;Ir-Pt:4.18;Ir-Y:2.87;Pt-Pt:4.08;Pt-Y:2.92;Y-Y:3.60 WP:a:2;b:2;b:2;a:2;a:2;b:2 | 4.27 6.81 7.73 90.0 90.0 90.0 | Al a 0.00 0.15 0.18 Al b 0.50 0.86 0.31 Al b 0.50 0.36 0.69 Al a 0.00 0.65 0.82 Y b 0.50 0.47 0.06 Y a 0.00 0.54 0.43 Y a 0.00 0.04 0.57 Y b 0.50 0.97 0.94 Ir b 0.50 0.22 0.34 Ir b 0.50 0.72 0.66 Pt a 0.00 0.76 0.15 Pt a 0.00 0.26 0.85" pbc="T T T"
Al       0.00000000       1.02150000       1.39140000
Al       2.13500000       5.85660000       2.39630000
Al       2.13500000       2.45160000       5.33370000
Al       0.00000000       4.42650000       6.33860000
Y        2.13500000       3.20070000       0.46380000
Y        0.00000000       3.67740000       3.32390000
Y        0.00000000       0.27240000       4.40610000
Y        2.13500000       6.60570000       7.26620000
Ir       2.13500000       1.49820000       2.62820000
Ir       2.13500000       4.90320000       5.10180000
Pt       0.00000000       5.17560000       1.15950000
Pt       0.00000000       1.77060000       6.57050000
6
Lattice="4.01 0.0 0.0 -2.004999999999999 3.472761869175599 0.0 0.0 0.0 8.85" Properties=species:S:1:pos:R:3 wyckoff_letters="_JSON [\"d\", \"d\", \"b\", \"d\", \"d\", \"a\"]" formula=RbPa(PPd)2 source="P Pa Pd Rb | 6 |" target="A2B2CD P Pa Pd Rb | PaPd2RbP2 | SG 164 P-3m1 | OX: CN:23;26;20;20 NN:2.17;2.85;2.19;3.52 NP:P-P:4.01;P-Pa:2.87;P-Pd:2.19;P-Rb:3.52;Pa-Pa:4.03;Pa-Pd:3.10;Pa-Rb:4.44;Pd-Pd:2.84;Pd-Rb:3.68;Rb-Rb:4.01 WP:d:2;a:1;d:2;b:1 | 4.01 4.01 8.85 90.0 90.0 120.0 | P d 0.33 0.67 0.19 P d 0.67 0.33 0.81 Rb b 0.00 0.00 0.50 Pd d 0.67 0.33 0.20 Pd d 0.33 0.67 0.80 Pa a 0.00 0.00 0.00" pbc="T T T"
P       -0.02005000       2.32675045       1.68150000
P        2.02505000       1.14601142       7.16850000
Rb       0.00000000       0.00000000       4.42500000
Pd       2.02505000       1.14601142       1.77000000
Pd      -0.02005000       2.32675045       7.08000000
Pa       0.00000000       0.00000000       0.00000000
5
Lattice="9.48 0.0 0.0 8.4316672188015 4.333288348516421 0.0 8.4316672188015 2.0398349785914087 3.82314807083157" Properties=species:S:1:pos:R:3 wyckoff_letters="_JSON [\"c\", \"c\", \"a\", \"c\", \"c\"]" formula=Ba2Ni2Br source="Ba Br Ni | 5 |" target="A2B2C Ba Br Ni | Ba2Ni2Br | SG 166 R-3m | OX: CN:16;14;16 NN:3.35;3.51;2.44 NP:Ba-Ba:4.20;Ba-Br:3.51;Ba-Ni:3.35;Br-Br:4.43;Br-Ni:4.43;Ni-Ni:2.44 WP:c:2;a:1;c:2 | 9.48 9.48 9.48 27.2 27.2 27.2 | Ni c 0.17 0.17 0.17 Ni c 0.83 0.83 0.83 Br a 0.00 0.00 0.00 Ba c 0.42 0.42 0.42 Ba c 0.58 0.58 0.58" pbc="T T T"
Ni       4.47836685       1.08343097       0.64993517
Ni      21.86496758       5.28969236       3.17321290
Br       0.00000000       0.00000000       0.00000000
Ba      11.06420046       2.67671180       1.60572219
Ba      15.27913397       3.69641153       2.21742588
22
Lattice="6.13 0.0 0.0 0.0 6.36 0.0 0.0 1.4759138397894114 9.759025480933948" Properties=species:S:1:pos:R:3 wyckoff_letters="_JSON [\"e\", \"e\", \"e\", \"f\", \"f\", \"e\", \"f\", \"f\", \"e\", \"e\", \"f\", \"f\", \"e\", \"f\", \"f\", \"e\", \"e\", \"e\", \"e\", \"e\", \"e\", \"e\"]" formula=Rb2TiHF7 source="F H Rb Ti | 22 |" target="A7B2CD F H Rb Ti | Rb4Ti2F14H2 | SG 11 P2_1/m | OX:-1;-1;+1;+1;+4 CN:27;26;30;32;32 NN:1.43;1.89;0.99;2.96;1.88 NP:F-F:2.46;F-H:0.99;F-Rb:2.85;F-Ti:1.88;H-H:3.74;H-Rb:3.48;H-Ti:2.85;Rb-Rb:4.35;Rb-Ti:3.77 WP:e:6;f:8;e:2;e:4;e:2 | 6.13 6.36 9.87 81.4 90.0 90.0 | H e 0.25 0.36 0.46 H e 0.75 0.64 0.54 F e 0.75 0.23 0.01 F f 0.53 0.67 0.11 F f 0.97 0.67 0.11 F e 0.75 0.99 0.22 F f 0.04 0.22 0.30 F f 0.46 0.22 0.30 F e 0.25 0.57 0.41 F e 0.75 0.43 0.59 F f 0.54 0.78 0.70 F f 0.96 0.78 0.70 F e 0.25 0.01 0.78 F f 0.03 0.33 0.89 F f 0.47 0.33 0.89 F e 0.25 0.77 0.99 Ti e 0.25 0.81 0.21 Ti e 0.75 0.19 0.79 Rb e 0.25 0.13 0.10 Rb e 0.75 0.67 0.42 Rb e 0.25 0.33 0.58 Rb e 0.75 0.87 0.90" pbc="T T T"
H        1.53250000       2.96852037       4.48915172
H        4.59750000       4.86739347       5.26987376
F        4.59750000       1.47755914       0.09759025
F        3.24890000       4.42355052       1.07349280
F        5.94610000       4.42355052       1.07349280
F        4.59750000       6.62110104       2.14698561
F        0.24520000       1.84197415       2.92770764
F        2.81980000       1.84197415       2.92770764
F        1.53250000       4.23032467       4.00120045
F        4.59750000       3.60558917       5.75782503
F        3.31020000       5.99393969       6.83131784
F        5.88480000       5.99393969       6.83131784
F        1.53250000       1.21481280       7.61203988
F        0.18390000       3.41236332       8.68553268
F        2.88110000       3.41236332       8.68553268
F        1.53250000       6.35835470       9.66143523
Ti       1.53250000       5.46154191       2.04939535
Ti       4.59750000       2.37437193       7.70963013
Rb       1.53250000       0.97439138       0.97590255
Rb       4.59750000       4.88108381       4.09879070
Rb       1.53250000       2.95483003       5.66023478
Rb       4.59750000       6.86152246       8.78312293
4
Lattice="4.33 0.0 0.0 -2.164999999999999 3.7498899983866196 0.0 0.0 0.0 4.33" Properties=species:S:1:pos:R:3 wyckoff_letters="_JSON [\"a\", \"a\", \"b\", \"c\"]" formula=SrBeSbH source="Be H Sb Sr | 4 |" target="ABCD Be H Sb Sr | BeSrHSb | SG 156 P3m1 | OX:+2;-1;-3;+2 CN:28;28;26;26 NN:1.53;1.53;2.55;2.55 NP:Be-Be:4.33;Be-H:1.53;Be-Sb:2.55;Be-Sr:3.28;H-H:4.33;H-Sb:3.26;H-Sr:2.55;Sb-Sb:4.33;Sb-Sr:3.38;Sr-Sr:4.33 WP:a:1;a:1;c:1;b:1 | 4.33 4.33 4.33 90.0 90.0 120.0 | H a 0.24 0.48 0.23 Be a 0.24 0.48 0.89 Sr b 0.57 0.14 0.34 Sb c 0.91 0.81 0.80" pbc="T T T"
H        0.00000000       1.79994720       0.99590000
Be       0.00000000       1.79994720       3.85370000
Sr       2.16500000       0.52498460       1.47220000
Sb       2.18665000       3.03741090       3.46400000
14
Lattice="6.48 0.0 0.0 -2.5631348566080128 5.951532551103205 0.0 1.7320441862610736 2.6317774488286023 6.485203959527905" Properties=species:S:1:pos:R:3 wyckoff_letters="_JSON [\"a\", \"c\", \"c\", \"c\", \"c\", \"c\", \"c\", \"c\", \"c\", \"b\", \"c\", \"c\", \"b\", \"c\"]" formula=SrScUGe2O9 source="Ge O Sc Sr U | 16 |" target="A10B2C2DE Ge O Sc Sr U | ScSr2NdGe6O | SG 5 C2 | OX:+4;-2;-2;+3;+2;+4 CN:38;32;34;37;38;38 NN:1.81;1.92;1.86;2.04;2.47;2.28 NP:Ge-Ge:4.07;Ge-O:1.81;Ge-Sc:3.51;Ge-Sr:3.33;Ge-U:3.31;O-O:2.75;O-Sc:2.04;O-Sr:2.47;O-U:2.28;Sc-Sr:3.62;Sc-U:3.81;Sr-Sr:4.17;Sr-U:4.08 WP:c:2;a:1;c:8;b:1;b:1;c:2 | 6.48 6.48 7.21 76.1 76.1 113.3 | O a 0.43 0.57 0.00 O c 0.00 0.73 0.12 O c 0.40 0.11 0.21 O c 0.62 0.75 0.33 O c 0.96 0.28 0.43 O c 0.72 0.04 0.57 O c 0.25 0.38 0.67 O c 0.89 0.60 0.79 O c 0.27 1.00 0.88 Sc b 0.56 0.44 0.50 Ge c 0.19 0.38 0.22 Ge c 0.62 0.81 0.78 Sr b 0.19 0.81 0.50 U c 0.80 0.17 0.00" pbc="T T T"
O        1.32541313       3.39237355       0.00000000
O       -1.66324314       4.66043206       0.77822448
O        2.67378444       1.20734184       1.36189283
O        2.66682344       5.33213597       2.14011731
O        6.24790124       2.79809342       2.78863770
O        5.55033979       1.73817445       3.69656626
O        1.80647836       4.02487326       4.34508665
O        5.59763399       5.65002372       5.12331113
O        0.71066403       8.26749671       5.70697948
Sc       3.36704276       3.93456305       3.24260198
Ge       0.63825848       2.84057341       1.42674487
Ge       3.29245523       6.87352778       5.05845909
Sr       0.02108286       6.13663009       3.24260198
U        4.74826707       1.01176053       0.00000000
20
Lattice="6.44 0.0 0.0 4.309201104951048 4.785852676074419 0.0 3.7382031049733784 1.664355253843585 10.982447775198873" Properties=species:S:1:pos:R:3 wyckoff_letters="_JSON [\"i\", \"i\", \"i\", \"i\", \"d\", \"i\", \"i\", \"i\", \"i\", \"i\", \"i\", \"i\", \"c\", \"i\", \"i\", \"i\", \"i\", \"i\", \"i\", \"i\"]" formula=Sm7Os4C9 source="C Os Sm | 20 |" target="A9B7C4 C Os Sm | Os4Sm7C9 | SG 12 C2/m | OX: CN:32;29;28;28;29 NN:1.93;1.64;1.93;2.54;2.57 NP:C-C:1.32;C-Os:1.92;C-Sm:2.50;Os-Os:2.67;Os-Sm:3.09;Sm-Sm:3.46 WP:d:1;i:8;i:4;c:1;i:6 | 6.44 6.44 11.72 71.4 71.4 48.0 | C i 0.39 0.39 0.12 C i 0.63 0.63 0.21 C i 0.94 0.94 0.31 C i 0.82 0.82 0.36 C d 0.50 0.50 0.50 C i 0.18 0.18 0.64 C i 0.06 0.06 0.69 C i 0.37 0.37 0.79 C i 0.61 0.61 0.88 Sm i 0.87 0.87 0.12 Sm i 0.15 0.15 0.18 Sm i 0.39 0.39 0.34 Sm c 0.00 0.00 0.50 Sm i 0.61 0.61 0.66 Sm i 0.85 0.85 0.82 Sm i 0.13 0.13 0.88 Os i 0.57 0.57 0.07 Os i 0.65 0.65 0.36 Os i 0.35 0.35 0.64 Os i 0.43 0.43 0.93" pbc="T T T"
C        4.64077280       2.06620517       1.31789373
C        7.55701935       3.36460179       2.30631403
C       11.26309200       5.01465164       3.40455881
C       10.16009802       4.52356709       3.95368120
C        7.24370210       3.22510396       5.49122389
C        4.32730619       1.92664084       7.02876658
C        3.22431221       1.43555629       7.57788896
C        6.93038486       3.08560614       8.67613374
C        9.84663141       4.38400276       9.66455404
Sm       9.80038933       4.36341446       1.31789373
Sm       2.28525672       1.01746185       1.97684060
Sm       5.46317749       2.43236333       3.73403224
Sm       1.86910155       0.83217763       5.49122389
Sm       9.02422672       4.01784460       7.24841553
Sm      12.20214749       5.43274608       9.00560718
Sm       4.68701488       2.08679347       9.66455404
Os       6.38871885       2.84444089       0.76877134
Os       8.33273384       3.70997213       3.95368120
Os       6.15467037       2.74023580       7.02876658
Os       8.09868536       3.60576704      10.21367643
8
Lattice="4.04 0.0 0.0 0.0 5.72 0.0 0.0 0.0 7.02" Properties=species:S:1:pos:R:3 wyckoff_letters="_JSON [\"b\", \"b\", \"b\", \"b\", \"a\", \"a\", \"a\", \"a\"]" formula=Gd2PS source="Gd P S | 8 |" target="A2BC Gd P S | Gd4P2S2 | SG 59 Pmmn | OX:+2;-3;-2 CN:26;26;26 NN:2.83;2.87;2.83 NP:Gd-Gd:3.90;Gd-P:2.87;Gd-S:2.83;P-P:4.04;P-S:4.04;S-S:4.07 WP:a:4;b:2;b:2 | 4.04 5.72 7.02 90.0 90.0 90.0 | P b 0.00 0.50 0.37 P b 0.50 0.00 0.63 S b 0.50 0.00 0.12 S b 0.00 0.50 0.88 Gd a 0.50 0.50 0.13 Gd a 0.00 0.00 0.38 Gd a 0.50 0.50 0.62 Gd a 0.00 0.00 0.87" pbc="T T T"
P        0.00000000       2.86000000       2.59740000
P        2.02000000       0.00000000       4.42260000
S        2.02000000       0.00000000       0.84240000
S        0.00000000       2.86000000       6.17760000
Gd       2.02000000       2.86000000       0.91260000
Gd       0.00000000       0.00000000       2.66760000
Gd       2.02000000       2.86000000       4.35240000
Gd       0.00000000       0.00000000       6.10740000
20
Lattice="9.64 0.0 0.0 0.0 9.64 0.0 0.0 0.0 3.47" Properties=species:S:1:pos:R:3 wyckoff_letters="_JSON [\"g\", \"g\", \"g\", \"g\", \"a\", \"a\", \"c\", \"j\", \"j\", \"j\", \"j\", \"c\", \"j\", \"j\", \"j\", \"j\", \"g\", \"g\", \"g\", \"g\"]" formula=MgPa2Be2Ir5 source="Be Ir Mg Pa | 20 |" target="A5B2C2D Be Ir Mg Pa | Be4Ir10Mg2Pa4 | SG 127 P4/mbm | OX: CN:34;30;30;35;18 NN:2.33;2.33;2.34;2.79;2.84 NP:Be-Be:3.23;Be-Ir:2.33;Be-Mg:3.86;Be-Pa:2.84;Ir-Ir:2.81;Ir-Mg:2.79;Ir-Pa:2.97;Mg-Mg:3.47;Mg-Pa:3.55;Pa-Pa:3.47 WP:g:4;c:2;j:8;a:2;g:4 | 9.64 9.64 3.47 90.0 90.0 90.0 | Be g 0.38 0.12 0.00 Be g 0.88 0.38 0.00 Be g 0.12 0.62 0.00 Be g 0.62 0.88 0.00 Mg a 0.00 0.00 0.00 Mg a 0.50 0.50 0.00 Ir c 0.50 0.00 0.50 Ir j 0.22 0.07 0.50 Ir j 0.93 0.22 0.50 Ir j 0.43 0.28 0.50 Ir j 0.72 0.43 0.50 Ir c 0.00 0.50 0.50 Ir j 0.28 0.57 0.50 Ir j 0.57 0.72 0.50 Ir j 0.07 0.78 0.50 Ir j 0.78 0.93 0.50 Pa g 0.68 0.18 0.00 Pa g 0.18 0.32 0.00 Pa g 0.82 0.68 0.00 Pa g 0.32 0.82 0.00" pbc="T T T"
Be       3.66320000       1.15680000       0.00000000
Be       8.48320000       3.66320000       0.00000000
Be       1.15680000       5.97680000       0.00000000
Be       5.97680000       8.48320000       0.00000000
Mg       0.00000000       0.00000000       0.00000000
Mg       4.82000000       4.82000000       0.00000000
Ir       4.82000000       0.00000000       1.73500000
Ir       2.12080000       0.67480000       1.73500000
Ir       8.96520000       2.12080000       1.73500000
Ir       4.14520000       2.69920000       1.73500000
Ir       6.94080000       4.14520000       1.73500000
Ir       0.00000000       4.82000000       1.73500000
Ir       2.69920000       5.49480000       1.73500000
Ir       5.49480000       6.94080000       1.73500000
Ir       0.67480000       7.51920000       1.73500000
Ir       7.51920000       8.96520000       1.73500000
Pa       6.55520000       1.73520000       0.00000000
Pa       1.73520000       3.08480000       0.00000000
Pa       7.90480000       6.55520000       0.00000000
Pa       3.08480000       7.90480000       0.00000000
16
Lattice="8.12 0.0 0.0 0.0 4.5 0.0 -4.454999999999998 -4.058905123450622 6.5624967961002705" Properties=species:S:1:pos:R:3 wyckoff_letters="_JSON [\"h\", \"h\", \"c\", \"h\", \"h\", \"c\", \"h\", \"h\", \"d\", \"b\", \"d\", \"d\", \"a\", \"e\", \"e\", \"e\"]" formula=Rb4DyHo3S8 source="Dy Ho Rb S | 16 |" target="A8B4C3D Dy Ho Rb S | DyHo3Rb4S8 | SG 166 R-3m | OX:+3;+3;+1;+1;-2;-2 CN:24;24;18;18;18;18 NN:2.77;2.77;3.32;3.32;2.77;2.77 NP:Dy-Ho:4.06;Dy-Rb:4.50;Dy-S:2.77;Ho-Ho:4.06;Ho-Rb:4.50;Ho-S:2.77;Rb-Rb:4.06;Rb-S:3.32;S-S:3.77 WP:a:1;e:3;b:1;d:3;c:2;h:6 | 8.12 4.50 8.91 117.1 120.0 90.0 | S h 0.27 0.31 0.04 S h 0.77 0.31 0.04 S c 0.73 0.69 0.46 S h 0.23 0.69 0.46 S h 0.77 0.31 0.54 S c 0.27 0.31 0.54 S h 0.23 0.69 0.96 S h 0.73 0.69 0.96 Rb d 0.00 0.00 0.00 Rb b 0.50 0.00 0.00 Rb d 0.50 1.00 0.50 Rb d 1.00 1.00 0.50 Dy a 1.00 0.50 1.00 Ho e 0.50 0.50 0.50 Ho e 1.00 0.50 0.50 Ho e 0.50 0.50 1.00" pbc="T T T"
S        2.01420000       1.23264380       0.26249987
S        6.07420000       1.23264380       0.26249987
S        3.87830000       1.23790364       3.01874853
S       -0.18170000       1.23790364       3.01874853
S        3.84670000      -0.79680877       3.54374827
S       -0.21330000      -0.79680877       3.54374827
S       -2.40920000      -0.79154892       6.29999692
S        1.65080000      -0.79154892       6.29999692
Rb       0.00000000       0.00000000       0.00000000
Rb       4.06000000       0.00000000       0.00000000
Rb       1.83250000       2.47054744       3.28124840
Rb       5.89250000       2.47054744       3.28124840
Dy       3.66500000      -1.80890512       6.56249680
Ho       1.83250000       0.22054744       3.28124840
Ho       5.89250000       0.22054744       3.28124840
Ho      -0.39500000      -1.80890512       6.56249680
18
Lattice="9.3 0.0 0.0 -4.649999999999999 8.05403625519528 0.0 0.0 0.0 4.34" Properties=species:S:1:pos:R:3 wyckoff_letters="_JSON [\"d\", \"d\", \"f\", \"f\", \"f\", \"k\", \"k\", \"k\", \"k\", \"k\", \"k\", \"a\", \"l\", \"l\", \"l\", \"l\", \"l\", \"l\"]" formula=Ca2Er(Zn3Pt2)3 source="Ca Er Pt Zn | 18 |" target="A9B6C2D Ca Er Pt Zn | Ca2ErPt6Zn9 | SG 191 P6/mmm | OX: CN:20;26;23;28;29 NN:3.23;2.97;2.55;2.60;2.55 NP:Ca-Ca:4.34;Ca-Pt:3.23;Ca-Zn:3.35;Er-Er:4.34;Er-Pt:2.97;Er-Zn:3.45;Pt-Pt:2.97;Pt-Zn:2.55;Zn-Zn:2.65 WP:d:2;a:1;l:6;f:3;k:6 | 9.30 9.30 4.34 90.0 90.0 120.0 | Ca d 0.67 0.33 0.50 Ca d 0.33 0.67 0.50 Zn f 1.00 0.50 0.00 Zn f 0.50 0.50 0.00 Zn f 0.50 1.00 0.00 Zn k 0.28 0.00 0.50 Zn k 0.28 0.28 0.50 Zn k 0.00 0.28 0.50 Zn k 1.00 0.72 0.50 Zn k 0.72 0.72 0.50 Zn k 0.72 1.00 0.50 Er a 0.00 0.00 0.00 Pt l 0.82 0.18 0.00 Pt l 0.37 0.18 0.00 Pt l 0.18 0.37 0.00 Pt l 0.82 0.63 0.00 Pt l 0.63 0.82 0.00 Pt l 0.18 0.82 0.00" pbc="T T T"
Ca       4.69650000       2.65783196       2.17000000
Ca      -0.04650000       5.39620429       2.17000000
Zn       6.97500000       4.02701813       0.00000000
Zn       2.32500000       4.02701813       0.00000000
Zn       0.00000000       8.05403626       0.00000000
Zn       2.60400000       0.00000000       2.17000000
Zn       1.30200000       2.25513015       2.17000000
Zn      -1.30200000       2.25513015       2.17000000
Zn       5.95200000       5.79890610       2.17000000
Zn       3.34800000       5.79890610       2.17000000
Zn       2.04600000       8.05403626       2.17000000
Er       0.00000000       0.00000000       0.00000000
Pt       6.78900000       1.44972653       0.00000000
Pt       2.60400000       1.44972653       0.00000000
Pt      -0.04650000       2.97999341       0.00000000
Pt       4.69650000       5.07404284       0.00000000
Pt       2.04600000       6.60430973       0.00000000
Pt      -2.13900000       6.60430973       0.00000000
70
Lattice="8.06 0.0 0.0 0.0 9.7 0.0 0.0 7.505707298883641 13.823793182172716" Properties=species:S:1:pos:R:3 wyckoff_letters="_JSON [\"e\", \"e\", \"e\", \"e\", \"e\", \"e\", \"e\", \"e\", \"e\", \"e\", \"e\", \"e\", \"e\", \"e\", \"e\", \"e\", \"e\", \"e\", \"e\", \"e\", \"e\", \"e\", \"e\", \"e\", \"e\", \"e\", \"e\", \"e\", \"e\", \"e\", \"e\", \"e\", \"e\", \"e\", \"e\", \"e\", \"e\", \"e\", \"e\", \"e\", \"e\", \"e\", \"e\", \"e\", \"e\", \"e\", \"e\", \"e\", \"e\", \"e\", \"e\", \"e\", \"e\", \"e\", \"e\", \"e\", \"e\", \"e\", \"e\", \"e\", \"e\", \"e\", \"e\", \"e\", \"e\", \"e\", \"e\", \"e\", \"e\", \"e\"]" formula=V2Cd6H4O23 source="Cd H O V | 72 |" target="A11B3C3D Cd H O V | Cd12V4H8O44 | SG 14 P2_1/c | OX:+2;+1;-2;+5 CN:40;38;39;43 NN:2.25;0.89;1.63;1.67 NP:Cd-Cd:3.54;Cd-H:2.64;Cd-O:2.22;Cd-V:3.41;H-H:1.57;H-O:0.99;H-V:2.85;O-O:2.57;O-V:1.67;V-V:3.37 WP:e:12;e:8;e:44;e:4 | 8.06 9.70 15.73 61.5 90.0 90.0 | H e 0.18 0.01 0.07 H e 0.44 0.66 0.09 H e 0.94 0.34 0.41 H e 0.68 0.99 0.43 H e 0.32 0.01 0.57 H e 0.06 0.66 0.59 H e 0.56 0.34 0.91 H e 0.82 0.99 0.93 O e 0.72 0.92 0.03 O e 0.99 0.22 0.04 O e 0.28 0.44 0.05 O e 0.53 0.23 0.08 O e 0.28 0.71 0.12 O e 0.99 0.52 0.13 O e 0.72 0.55 0.14 O e 0.27 0.04 0.14 O e 0.76 0.27 0.19 O e 0.02 0.83 0.21 O e 0.52 0.81 0.25 O e 0.00 0.17 0.25 O e 0.50 0.17 0.25 O e 0.02 0.19 0.29 O e 0.26 0.73 0.31 O e 0.77 0.96 0.36 O e 0.22 0.45 0.36 O e 0.49 0.48 0.37 O e 0.78 0.29 0.38 O e 0.03 0.77 0.42 O e 0.78 0.56 0.45 O e 0.49 0.78 0.46 O e 0.22 0.08 0.47 O e 0.78 0.92 0.53 O e 0.51 0.22 0.54 O e 0.22 0.44 0.55 O e 0.97 0.23 0.58 O e 0.22 0.71 0.62 O e 0.51 0.52 0.63 O e 0.78 0.55 0.64 O e 0.23 0.04 0.64 O e 0.74 0.27 0.69 O e 0.98 0.81 0.71 O e 0.50 0.83 0.75 O e 1.00 0.83 0.75 O e 0.48 0.19 0.75 O e 0.98 0.17 0.79 O e 0.24 0.73 0.81 O e 0.73 0.96 0.86 O e 0.28 0.45 0.86 O e 0.01 0.48 0.87 O e 0.72 0.29 0.88 O e 0.47 0.77 0.92 O e 0.72 0.56 0.95 O e 0.01 0.78 0.96 O e 0.28 0.08 0.97 V e 0.15 0.51 0.23 V e 0.65 0.49 0.27 V e 0.35 0.51 0.73 V e 0.85 0.49 0.77 Cd e 0.82 0.24 0.04 Cd e 0.67 0.77 0.06 Cd e 0.45 0.02 0.23 Cd e 0.95 0.98 0.27 Cd e 0.17 0.23 0.44 Cd e 0.32 0.76 0.46 Cd e 0.68 0.24 0.54 Cd e 0.83 0.77 0.56 Cd e 0.05 0.02 0.73 Cd e 0.55 0.98 0.77 Cd e 0.33 0.23 0.94 Cd e 0.18 0.76 0.96" pbc="T T T"
H        1.45080000       0.62239951       0.96766552
H        3.54640000       7.07751366       1.24414139
H        7.57640000       6.37533999       5.66775520
H        5.48080000      12.83045414       5.94423107
H        2.57920000       4.37525316       7.87956211
H        0.48360000      10.83036731       8.15603798
H        4.51360000      10.12819364      12.57965180
H        6.60920000      16.58330779      12.85612766
O        5.80320000       9.14917122       0.41471380
O        7.97940000       2.43422829       0.55295173
O        2.25680000       4.64328536       0.69118966
O        4.27180000       2.83145658       1.10590345
O        2.25680000       7.78768488       1.65885518
O        7.97940000       6.01974195       1.79709311
O        5.80320000       6.38579902       1.93533105
O        2.17620000       1.43879902       1.93533105
O        6.12560000       4.04508439       2.62652070
O        0.16120000       9.62719853       2.90299657
O        4.19120000       9.73342682       3.45594830
O        0.00000000       3.52542682       3.45594830
O        4.03000000       3.52542682       3.45594830
O        0.16120000       4.01965512       4.00890002
O        2.09560000       9.40776926       4.28537589
O        6.20620000      12.01405463       4.97656555
O        1.77320000       7.06705463       4.97656555
O        3.94940000       7.43311170       5.11480348
O        6.28680000       5.66516877       5.25304141
O        0.24180000      10.62139707       5.80599314
O        6.28680000       8.80956828       6.22070693
O        3.94940000      11.01862536       6.35894486
O        1.77320000       4.30368243       6.49718280
O        6.28680000      12.90202487       7.32661039
O        4.11060000       6.18708194       7.46484832
O        1.77320000       8.39613901       7.60308625
O        7.81820000       6.58431023       8.01780005
O        1.77320000      11.54053853       8.57075177
O        4.11060000       9.77259560       8.70898970
O        6.28680000      10.13865267       8.84722764
O        1.85380000       5.19165267       8.84722764
O        5.96440000       7.79793804       9.53841730
O        7.89880000      13.18605218       9.81489316
O        4.03000000      13.68028047      10.36784489
O        8.06000000      13.68028047      10.36784489
O        3.86880000       7.47228047      10.36784489
O        7.89880000       7.57850877      10.92079661
O        1.93440000      13.16062291      11.19727248
O        5.88380000      15.76690828      11.88846214
O        2.25680000      10.81990828      11.88846214
O        0.08060000      11.18596535      12.02670007
O        5.80320000       9.41802242      12.16493800
O        3.78820000      14.37425071      12.71788973
O        5.80320000      12.56242193      13.13260352
O        0.08060000      14.77147901      13.27084145
O        2.25680000       8.05653608      13.40907939
V        1.20900000       6.67331268       3.17947243
V        5.23900000       6.77954097       3.73242416
V        2.82100000      10.42616633      10.09136902
V        6.85100000      10.53239462      10.64432075
Cd       6.60920000       2.62822829       0.55295173
Cd       5.40020000       7.91934244       0.82942759
Cd       3.62700000       1.92031268       3.17947243
Cd       7.65700000      11.53254097       3.73242416
Cd       1.37020000       5.53351121       6.08246900
Cd       2.57920000      10.82462536       6.35894486
Cd       5.48080000       6.38108194       7.46484832
Cd       6.68980000      11.67219609       7.74132418
Cd       0.40300000       5.67316633      10.09136902
Cd       4.43300000      15.28539462      10.64432075
Cd       2.65980000       9.28636486      12.99436559
Cd       1.45080000      14.57747901      13.27084145
33
Lattice="8.52 0.0 0.0 0.0 8.52 0.0 0.0 0.0 8.53" Properties=species:S:1:pos:R:3 wyckoff_letters="_JSON [\"g\", \"g\", \"g\", \"g\", \"g\", \"g\", \"g\", \"g\", \"e\", \"e\", \"h\", \"e\", \"h\", \"h\", \"e\", \"h\", \"f\", \"h\", \"h\", \"e\", \"h\", \"h\", \"f\", \"h\", \"f\", \"f\", \"h\", \"f\", \"e\", \"h\", \"h\", \"f\", \"a\"]" formula=Sm8TlPt24 source="Pt Sm Tl | 33 |" target="A24B8C Pt Sm Tl | Pt24Sm8Tl | SG 221 Pm-3m | OX: CN:22;18;20;22;38 NN:2.72;2.93;2.74;3.04;2.72 NP:Pt-Pt:2.74;Pt-Sm:3.04;Pt-Tl:2.72;Sm-Sm:4.26;Sm-Tl:3.69 WP:e:6;f:6;h:12;g:8;a:1 | 8.52 8.52 8.53 90.0 90.0 90.0 | Sm g 0.25 0.25 0.25 Sm g 0.75 0.25 0.25 Sm g 0.25 0.75 0.25 Sm g 0.75 0.75 0.25 Sm g 0.25 0.25 0.75 Sm g 0.75 0.25 0.75 Sm g 0.25 0.75 0.75 Sm g 0.75 0.75 0.75 Pt e 0.33 0.00 0.00 Pt e 0.67 0.00 0.00 Pt h 0.50 0.27 0.00 Pt e 0.00 0.33 0.00 Pt h 0.27 0.50 0.00 Pt h 0.73 0.50 0.00 Pt e 0.00 0.67 0.00 Pt h 0.50 0.73 0.00 Pt f 0.50 0.50 0.26 Pt h 0.50 0.00 0.27 Pt h 0.00 0.50 0.27 Pt e 0.00 0.00 0.33 Pt h 0.27 0.00 0.50 Pt h 0.73 0.00 0.50 Pt f 0.50 0.26 0.50 Pt h 0.00 0.27 0.50 Pt f 0.26 0.50 0.50 Pt f 0.74 0.50 0.50 Pt h 0.00 0.73 0.50 Pt f 0.50 0.74 0.50 Pt e 0.00 0.00 0.67 Pt h 0.50 0.00 0.73 Pt h 0.00 0.50 0.73 Pt f 0.50 0.50 0.74 Tl a 0.00 0.00 0.00" pbc="T T T"
Sm       2.13000000       2.13000000       2.13250000
Sm       6.39000000       2.13000000       2.13250000
Sm       2.13000000       6.39000000       2.13250000
Sm       6.39000000       6.39000000       2.13250000
Sm       2.13000000       2.13000000       6.39750000
Sm       6.39000000       2.13000000       6.39750000
Sm       2.13000000       6.39000000       6.39750000
Sm       6.39000000       6.39000000       6.39750000
Pt       2.81160000       0.00000000       0.00000000
Pt       5.70840000       0.00000000       0.00000000
Pt       4.26000000       2.30040000       0.00000000
Pt       0.00000000       2.81160000       0.00000000
Pt       2.30040000       4.26000000       0.00000000
Pt       6.21960000       4.26000000       0.00000000
Pt       0.00000000       5.70840000       0.00000000
Pt       4.26000000       6.21960000       0.00000000
Pt       4.26000000       4.26000000       2.21780000
Pt       4.26000000       0.00000000       2.30310000
Pt       0.00000000       4.26000000       2.30310000
Pt       0.00000000       0.00000000       2.81490000
Pt       2.30040000       0.00000000       4.26500000
Pt       6.21960000       0.00000000       4.26500000
Pt       4.26000000       2.21520000       4.26500000
Pt       0.00000000       2.30040000       4.26500000
Pt       2.21520000       4.26000000       4.26500000
Pt       6.30480000       4.26000000       4.26500000
Pt       0.00000000       6.21960000       4.26500000
Pt       4.26000000       6.30480000       4.26500000
Pt       0.00000000       0.00000000       5.71510000
Pt       4.26000000       0.00000000       6.22690000
Pt       0.00000000       4.26000000       6.22690000
Pt       4.26000000       4.26000000       6.31220000
Tl       0.00000000       0.00000000       0.00000000
52
Lattice="11.3 0.0 0.0 0.0 7.66 0.0 0.0 0.1817336612977649 11.568572637812814" Properties=species:S:1:pos:R:3 wyckoff_letters="_JSON [\"e\", \"e\", \"e\", \"e\", \"e\", \"e\", \"e\", \"e\", \"e\", \"e\", \"e\", \"e\", \"e\", \"e\", \"e\", \"e\", \"e\", \"e\", \"e\", \"e\", \"e\", \"e\", \"e\", \"e\", \"e\", \"e\", \"e\", \"e\", \"e\", \"e\", \"e\", \"e\", \"a\", \"c\", \"e\", \"e\", \"e\", \"e\", \"b\", \"a\", \"e\", \"e\", \"e\", \"e\", \"e\", \"e\", \"e\", \"e\", \"e\", \"e\", \"e\", \"e\"]" formula=Rb2Ni3F8 source="F Ni Rb | 52 |" target="A15B7C4 F Ni Rb | Ni14Rb8F30 | SG 14 P2_1/c | OX:-1;-1;+2;+2;+1;+1 CN:33;32;34;33;32;29 NN:2.00;2.01;2.00;2.00;2.89;2.86 NP:F-F:2.69;F-Ni:2.00;F-Rb:2.79;Ni-Ni:2.84;Ni-Rb:3.62;Rb-Rb:4.06 WP:e:28;a:2;b:2;c:2;e:8;e:8 | 11.30 7.66 11.57 89.1 90.0 90.0 | F e 0.75 0.25 0.01 F e 0.23 0.35 0.04 F e 0.59 0.32 0.08 F e 0.03 0.33 0.16 F e 0.91 0.99 0.18 F e 0.25 0.01 0.21 F e 0.60 0.01 0.24 F e 0.16 0.56 0.25 F e 0.66 0.44 0.25 F e 0.10 0.99 0.26 F e 0.75 0.99 0.29 F e 0.41 0.01 0.32 F e 0.53 0.67 0.34 F e 0.09 0.68 0.42 F e 0.73 0.65 0.46 F e 0.25 0.75 0.49 F e 0.75 0.25 0.51 F e 0.27 0.35 0.54 F e 0.91 0.32 0.58 F e 0.47 0.33 0.66 F e 0.59 0.99 0.68 F e 0.25 0.01 0.71 F e 0.90 0.01 0.74 F e 0.34 0.56 0.75 F e 0.84 0.44 0.75 F e 0.40 0.99 0.76 F e 0.75 0.99 0.79 F e 0.09 0.01 0.82 F e 0.97 0.67 0.84 F e 0.41 0.68 0.92 F e 0.77 0.65 0.96 F e 0.25 0.75 0.99 Ni a 0.00 0.00 0.00 Ni c 0.50 0.00 0.00 Ni e 0.24 0.49 0.24 Ni e 0.75 0.32 0.25 Ni e 0.25 0.68 0.25 Ni e 0.74 0.51 0.26 Ni b 0.00 0.00 0.50 Ni a 0.50 0.00 0.50 Ni e 0.26 0.49 0.74 Ni e 0.75 0.32 0.75 Ni e 0.25 0.68 0.75 Ni e 0.76 0.51 0.76 Rb e 0.41 0.15 0.04 Rb e 0.92 0.68 0.05 Rb e 0.42 0.32 0.45 Rb e 0.91 0.85 0.46 Rb e 0.09 0.15 0.54 Rb e 0.58 0.68 0.55 Rb e 0.08 0.32 0.95 Rb e 0.59 0.85 0.96" pbc="T T T"
F        8.47500000       1.91681734       0.11568573
F        2.59900000       2.68826935       0.46274291
F        6.66700000       2.46573869       0.92548581
F        0.33900000       2.55687739       1.85097162
F       10.28300000       7.61611206       2.08234307
F        2.82500000       0.11476407       2.42940025
F        6.78000000       0.12021608       2.77645743
F        1.80800000       4.33503342       2.89214316
F        7.45800000       3.41583342       2.89214316
F        1.13000000       7.63065075       3.00782889
F        8.47500000       7.63610276       3.35488606
F        4.63300000       0.13475477       3.70194324
F        5.98900000       5.19398944       3.93331470
F        1.01700000       5.28512814       4.85880051
F        8.24900000       5.06259748       5.32154341
F        2.82500000       5.83404949       5.66860059
F        8.47500000       2.00768417       5.89997205
F        3.05100000       2.77913618       6.24702922
F       10.28300000       2.55660552       6.70977213
F        5.31100000       2.64774422       7.63525794
F        6.66700000       7.70697889       7.86662939
F        2.82500000       0.20563090       8.21368657
F       10.17000000       0.21108291       8.56074375
F        3.84200000       4.42590025       8.67642948
F        9.49200000       3.50670025       8.67642948
F        4.52000000       7.72151758       8.79211520
F        8.47500000       7.72696959       9.13917238
F        1.01700000       0.22562160       9.48622956
F       10.96100000       5.28485628       9.71760102
F        4.63300000       5.37599497      10.64308683
F        8.70100000       5.15346431      11.10582973
F        2.82500000       5.92491632      11.45288691
Ni       0.00000000       0.00000000       0.00000000
Ni       5.65000000       0.00000000       0.00000000
Ni       2.71200000       3.79701608       2.77645743
Ni       8.47500000       2.49663342       2.89214316
Ni       2.82500000       5.25423342       2.89214316
Ni       8.36200000       3.95385075       3.00782889
Ni       0.00000000       0.09086683       5.78428632
Ni       5.65000000       0.09086683       5.78428632
Ni       2.93800000       3.88788291       8.56074375
Ni       8.47500000       2.58750025       8.67642948
Ni       2.82500000       5.34510025       8.67642948
Ni       8.58800000       4.04471758       8.79211520
Rb       4.63300000       1.15626935       0.46274291
Rb      10.39600000       5.21788668       0.57842863
Rb       4.74600000       2.53298015       5.20585769
Rb      10.28300000       6.59459748       5.32154341
Rb       1.01700000       1.24713618       6.24702922
Rb       6.55400000       5.30875351       6.36271495
Rb       0.90400000       2.62384698      10.99014401
Rb       6.66700000       6.68546431      11.10582973
5
Lattice="4.0 0.0 0.0 0.0 4.0 0.0 -2.0557173279930745 -2.0557173279930745 5.099505126458648" Properties=species:S:1:pos:R:3 wyckoff_letters="_JSON [\"e\", \"e\", \"d\", \"c\", \"a\"]" formula=LuCuSi2Pd source="Cu Lu Pd Si | 5 |" target="A2BCD Cu Lu Pd Si | CuLuPdSi2 | SG 119 I-4m2 | OX: CN:28;22;28;34 NN:2.43;3.04;2.43;2.33 NP:Cu-Cu:4.00;Cu-Lu:3.20;Cu-Pd:2.83;Cu-Si:2.43;Lu-Lu:4.00;Lu-Pd:3.20;Lu-Si:3.04;Pd-Pd:4.00;Pd-Si:2.44;Si-Si:2.33 WP:d:1;a:1;c:1;e:2 | 4.00 4.00 5.87 110.5 110.5 90.0 | Si e 0.61 0.61 0.23 Si e 0.39 0.39 0.77 Cu d 0.25 0.75 0.50 Pd c 0.75 0.25 0.50 Lu a 0.00 0.00 0.00" pbc="T T T"
Si       1.96718501       1.96718501       1.17288618
Si      -0.02290234      -0.02290234       3.92661895
Cu      -0.02785866       1.97214134       2.54975256
Pd       1.97214134      -0.02785866       2.54975256
Lu       0.00000000       0.00000000       0.00000000
26
Lattice="7.73 0.0 0.0 3.242364597308949 7.017119909059384 0.0 2.582081181223134 1.6513098068225134 15.856498122078062" Properties=species:S:1:pos:R:3 wyckoff_letters="_JSON [\"f\", \"f\", \"f\", \"f\", \"f\", \"f\", \"f\", \"f\", \"f\", \"f\", \"f\", \"f\", \"f\", \"f\", \"f\", \"f\", \"f\", \"f\", \"e\", \"f\", \"f\", \"f\", \"f\", \"e\", \"f\", \"f\"]" formula=Cs5(FeS3)2 source="Cs Fe S | 26 |" target="A6B5C2 Cs Fe S | Cs10Fe4S12 | SG 15 C2/c | OX: CN:8;9;12;14 NN:3.55;3.53;2.27;2.20 NP:Cs-Cs:4.31;Cs-Fe:4.06;Cs-S:3.43;Fe-Fe:2.76;Fe-S:2.27;S-S:3.68 WP:e:2;f:8;f:4;f:12 | 7.73 7.73 16.15 80.8 80.8 65.2 | S f 0.80 0.62 0.06 S f 0.01 0.13 0.12 S f 0.29 0.41 0.13 S f 0.59 0.71 0.37 S f 0.87 0.99 0.38 S f 0.38 0.20 0.44 S f 0.62 0.80 0.56 S f 0.13 0.01 0.62 S f 0.41 0.29 0.63 S f 0.71 0.59 0.87 S f 0.99 0.87 0.88 S f 0.20 0.38 0.94 Fe f 0.08 0.38 0.07 Fe f 0.62 0.92 0.43 Fe f 0.38 0.08 0.57 Fe f 0.92 0.62 0.93 Cs f 0.32 0.79 0.00 Cs f 0.92 0.75 0.22 Cs e 0.61 0.39 0.25 Cs f 0.25 0.08 0.28 Cs f 0.21 0.68 0.50 Cs f 0.79 0.32 0.50 Cs f 0.75 0.92 0.72 Cs e 0.39 0.61 0.75 Cs f 0.08 0.25 0.78 Cs f 0.68 0.21 1.00" pbc="T T T"
S        8.34919092       4.44969293       0.95138989
S        0.80865714       1.11038276       1.90277977
S        3.90674004       3.09168944       2.06134476
S        7.81814890       5.59313976       5.86690431
S       10.91623180       7.57444644       6.02546929
S        4.72198864       2.13000030       6.97685917
S        8.83245714       6.53842942       8.87963895
S        2.63821398       1.09398328       9.83102884
S        5.73629688       3.07528995       9.98959382
S        9.64770574       5.57674028      13.79515337
S       12.74578864       7.55804695      13.95371835
S        5.20525486       4.21873678      14.90510823
Fe       2.03124423       2.78209725       1.10995487
Fe       8.88587034       7.16581353       6.81829419
Fe       4.66857544       1.50261618       9.03820393
Fe      11.52320155       5.88633246      14.74654325
Cs       5.03506803       5.54352473       0.00000000
Cs      10.11143131       5.62612809       3.48842959
Cs       6.62534249       3.14950422       3.96412453
Cs       2.91487190       1.02373634       4.43981947
Cs       5.11914852       5.59729644       7.92824906
Cs       8.43529726       3.07113327       7.92824906
Cs      10.63957388       7.64469338      11.41667865
Cs       6.92910329       5.51892550      11.89237359
Cs       3.44301447       3.04230163      12.36806854
Cs       8.51937775       3.12490499      15.85649812
26
Lattice="7.7 0.0 0.0 0.0 6.12 0.0 0.0 0.018430667543885643 10.559983916204319" Properties=species:S:1:pos:R:3 wyckoff_letters="_JSON [\"b\", \"b\", \"e\", \"e\", \"f\", \"f\", \"e\", \"f\", \"f\", \"f\", \"f\", \"e\", \"f\", \"f\", \"e\", \"e\", \"b\", \"b\", \"a\", \"a\", \"b\", \"e\", \"e\", \"e\", \"e\", \"a\"]" formula=Cs3CaAsCO7 source="As C Ca Cs O | 26 |" target="A7B3CDE As C Ca Cs O | Ca2Cs6As2C2O14 | SG 59 Pmmn | OX:+5;+4;+2;+1;+1;+1;-1;-2;-2 CN:24;29;17;23;26;30;22;24 NN:1.73;1.30;2.28;3.28;3.26;3.51;1.85;1.47;1.72 NP:As-Ca:3.87;As-Cs:3.75;As-O:1.73;C-Ca:2.86;C-Cs:3.58;C-O:1.30;Ca-Cs:3.83;Ca-O:2.28;Cs-Cs:3.78;Cs-O:3.16;O-O:2.25 WP:a:2;b:2;b:2;a:2;e:4;b:2;e:4;f:8 | 7.70 6.12 10.56 89.9 90.0 90.0 | C b 0.75 0.75 0.08 C b 0.25 0.25 0.92 O e 0.25 0.17 0.06 O e 0.25 0.83 0.06 O f 0.57 0.56 0.17 O f 0.93 0.56 0.17 O e 0.75 0.87 0.34 O f 0.25 0.63 0.35 O f 0.25 0.96 0.35 O f 0.75 0.04 0.65 O f 0.75 0.37 0.65 O e 0.25 0.13 0.66 O f 0.07 0.44 0.83 O f 0.43 0.44 0.83 O e 0.75 0.17 0.94 O e 0.75 0.83 0.94 Ca b 0.75 0.75 0.16 Ca b 0.25 0.25 0.84 As a 0.75 0.75 0.08 As a 0.25 0.25 0.92 Cs b 0.75 0.25 0.08 Cs e 0.25 0.51 0.42 Cs e 0.25 0.99 0.42 Cs e 0.75 0.01 0.58 Cs e 0.75 0.49 0.58 Cs a 0.25 0.75 0.92" pbc="T T T"
C        5.77500000       4.59147445       0.84479871
C        1.92500000       1.54695621       9.71518520
O        1.92500000       1.04150584       0.63359903
O        1.92500000       5.08070584       0.63359903
O        4.38900000       3.43033321       1.79519727
O        7.16100000       3.43033321       1.79519727
O        5.77500000       5.33066643       3.59039453
O        1.92500000       3.86205073       3.69599437
O        1.92500000       5.88165073       3.69599437
O        5.77500000       0.25677993       6.86398955
O        5.77500000       2.27637993       6.86398955
O        1.92500000       0.80776424       6.96958938
O        0.53900000       2.70809745       8.76478665
O        3.31100000       2.70809745       8.76478665
O        5.77500000       1.05772483       9.92638488
O        5.77500000       5.09692483       9.92638488
Ca       5.77500000       4.59294891       1.68959743
Ca       1.92500000       1.54548176       8.87038649
As       5.77500000       4.59147445       0.84479871
As       1.92500000       1.54695621       9.71518520
Cs       5.77500000       1.53147445       0.84479871
Cs       1.92500000       3.12894088       4.43519324
Cs       1.92500000       6.06654088       4.43519324
Cs       5.77500000       0.07188979       6.12479067
Cs       5.77500000       3.00948979       6.12479067
Cs       1.92500000       4.60695621       9.71518520
20
Lattice="9.94 0.0 0.0 -2.8895798043666296 9.510727025532617 0.0 -2.8895798043666296 -3.8979243754639974 8.675258734894316" Properties=species:S:1:pos:R:3 wyckoff_letters="_JSON [\"b\", \"f\", \"f\", \"f\", \"f\", \"f\", \"f\", \"f\", \"f\", \"f\", \"f\", \"f\", \"f\", \"f\", \"f\", \"f\", \"f\", \"f\", \"f\", \"a\"]" formula=NaNd6IrI12 source="I Ir Na Nd | 20 |" target="A12B6CD I Ir Na Nd | IrNaNd6I12 | SG 148 R-3 | OX: CN:15;18;12;12 NN:3.20;2.82;3.22;2.82 NP:I-I:4.32;I-Ir:4.47;I-Na:3.22;I-Nd:3.19;Ir-Nd:2.82;Na-Nd:4.57;Nd-Nd:3.97 WP:f:12;a:1;b:1;f:6 | 9.94 9.94 9.94 106.9 106.9 106.9 | Na b 0.50 0.50 0.50 I f 0.13 0.35 0.04 I f 0.35 0.04 0.13 I f 0.58 0.72 0.18 I f 0.82 0.42 0.28 I f 0.04 0.13 0.35 I f 0.28 0.82 0.42 I f 0.72 0.18 0.58 I f 0.96 0.87 0.65 I f 0.18 0.58 0.72 I f 0.42 0.28 0.82 I f 0.65 0.96 0.87 I f 0.87 0.65 0.96 Nd f 0.47 0.40 0.19 Nd f 0.19 0.47 0.40 Nd f 0.40 0.19 0.47 Nd f 0.60 0.81 0.53 Nd f 0.81 0.53 0.60 Nd f 0.53 0.60 0.81 Ir a 0.00 0.00 0.00" pbc="T T T"
Na       2.08042020       2.80640133       4.33762937
I        0.16526388       3.17283748       0.34701035
I        2.98777143      -0.12630109       1.12778364
I        3.16457818       6.14609707       1.56154657
I        6.12809414       2.90308653       2.42907245
I       -0.98939831      -0.12787902       3.03634056
I       -0.79987896       6.16166792       3.64360867
I        4.96071935      -0.54886527       5.03165007
I        5.15023870       5.74068167       5.63891818
I       -1.96725375       2.70971612       6.24618629
I        0.99626222      -0.53329442       7.11371216
I        1.17306896       5.73910374       7.54747510
I        3.99557651       2.43996517       8.32824839
Nd       2.96694792       3.06368518       1.64829916
Nd      -0.62533443       2.91087195       3.47010349
Nd       2.06887733      -0.02498632       4.07737161
Nd       2.09196306       5.63778897       4.59788713
Nd       4.78617482       2.70193070       5.20515524
Nd       1.19389248       2.54911747       7.02695958
Ir       0.00000000       0.00000000       0.00000000
7
Lattice="8.19 0.0 0.0 7.19068056875516 3.9204863165335695 0.0 7.19068056875516 1.8328814937901075 3.4656541067811" Properties=species:S:1:pos:R:3 wyckoff_letters="_JSON [\"c\", \"c\", \"c\", \"c\", \"a\", \"c\", \"c\"]" formula=Li2Pr(PPt)2 source="Li P Pr Pt | 7 |" target="A2B2C2D Li P Pr Pt | Li2PrPt2P2 | SG 166 R-3m | OX: CN:35;38;20;29 NN:2.49;2.39;3.19;2.39 NP:Li-Li:2.61;Li-P:2.49;Li-Pr:3.45;Li-Pt:2.67;P-P:4.09;P-Pr:3.19;P-Pt:2.39;Pr-Pr:4.09;Pr-Pt:3.26;Pt-Pt:3.54 WP:c:2;c:2;a:1;c:2 | 8.19 8.19 8.19 28.6 28.6 28.6 | Li c 0.14 0.14 0.14 Li c 0.86 0.86 0.86 P c 0.25 0.25 0.25 P c 0.75 0.75 0.75 Pr a 0.00 0.00 0.00 Pt c 0.43 0.43 0.43 Pt c 0.57 0.57 0.57" pbc="T T T"
Li       3.15999056       0.80547149       0.48519157
Li      19.41137058       4.94789632       2.98046253
P        5.64284028       1.43834195       0.86641353
P       16.92852085       4.31502586       2.59924058
Pr       0.00000000       0.00000000       0.00000000
Pt       9.70568529       2.47394816       1.49023127
Pt      12.86567585       3.27941965       1.97542284
6
Lattice="4.41 0.0 0.0 -2.204999999999999 3.8191720306893746 0.0 0.0 0.0 6.76" Properties=species:S:1:pos:R:3 wyckoff_letters="_JSON [\"b\", \"d\", \"d\", \"a\", \"d\", \"d\"]" formula=LiSm(GeAu)2 source="Au Ge Li Sm | 6 |" target="A2B2CD Au Ge Li Sm | Au2LiSmGe2 | SG 164 P-3m1 | OX: CN:23;23;20;20 NN:2.57;2.58;2.71;3.10 NP:Au-Au:3.64;Au-Ge:2.57;Au-Li:2.71;Au-Sm:3.29;Ge-Ge:4.09;Ge-Li:3.00;Ge-Sm:3.10;Li-Li:4.41;Li-Sm:3.38;Sm-Sm:4.41 WP:d:2;d:2;b:1;a:1 | 4.41 4.41 6.76 90.0 90.0 120.0 | Li b 0.00 0.00 0.50 Ge d 0.67 0.33 0.27 Ge d 0.33 0.67 0.73 Sm a 0.00 0.00 0.00 Au d 0.33 0.67 0.28 Au d 0.67 0.33 0.72" pbc="T T T"
Li       0.00000000       0.00000000       3.38000000
Ge       2.22705000       1.26032677       1.82520000
Ge      -0.02205000       2.55884526       4.93480000
Sm       0.00000000       0.00000000       0.00000000
Au      -0.02205000       2.55884526       1.89280000
Au       2.22705000       1.26032677       4.86720000
64
Lattice="13.47 0.0 0.0 -6.734999999999998 11.66536218897639 0.0 0.0 0.0 9.6" Properties=species:S:1:pos:R:3 wyckoff_letters="_JSON [\"i\", \"i\", \"i\", \"i\", \"i\", \"i\", \"i\", \"i\", \"i\", \"i\", \"i\", \"i\", \"i\", \"i\", \"i\", \"i\", \"i\", \"i\", \"i\", \"i\", \"i\", \"i\", \"i\", \"i\", \"g\", \"g\", \"g\", \"g\", \"g\", \"g\", \"b\", \"b\", \"i\", \"i\", \"i\", \"i\", \"i\", \"i\", \"i\", \"i\", \"i\", \"i\", \"i\", \"i\", \"i\", \"i\", \"i\", \"i\", \"i\", \"i\", \"i\", \"i\", \"i\", \"i\", \"i\", \"i\", \"g\", \"g\", \"g\", \"g\", \"g\", \"g\", \"c\", \"c\"]" formula=Rb3NpAl3B12Se12Cl source="Al B Cl Np Rb Se | 64 |" target="A12B12C3D3EF Al B Cl Np Rb Se | Al6Np2Rb6B24Cl2Se24 | SG 182 P6_322 | OX: CN:29;30;14;24;17;28 NN:2.38;1.77;3.61;2.90;3.59;2.02 NP:Al-Al:4.98;Al-B:3.25;Al-Np:4.62;Al-Rb:4.58;Al-Se:2.38;B-B:1.77;B-Np:3.66;B-Rb:4.79;B-Se:2.01;Cl-Cl:4.80;Cl-Rb:3.61;Cl-Se:4.94;Np-Se:2.90;Rb-Rb:4.59;Rb-Se:3.59;Se-Se:3.75 WP:g:6;i:24;b:2;c:2;g:6;i:24 | 13.47 13.47 9.60 90.0 90.0 120.0 | B i 0.66 0.26 0.11 B i 0.59 0.34 0.11 B i 0.74 0.41 0.11 B i 0.54 0.21 0.22 B i 0.79 0.33 0.22 B i 0.67 0.46 0.22 B i 0.67 0.21 0.28 B i 0.54 0.33 0.28 B i 0.79 0.46 0.28 B i 0.59 0.26 0.39 B i 0.74 0.34 0.39 B i 0.66 0.41 0.39 B i 0.26 0.59 0.61 B i 0.41 0.66 0.61 B i 0.34 0.74 0.61 B i 0.33 0.54 0.72 B i 0.21 0.67 0.72 B i 0.46 0.79 0.72 B i 0.21 0.54 0.78 B i 0.46 0.67 0.78 B i 0.33 0.79 0.78 B i 0.34 0.59 0.89 B i 0.26 0.66 0.89 B i 0.41 0.74 0.89 Al g 1.00 0.46 0.00 Al g 0.54 0.54 0.00 Al g 0.46 1.00 0.00 Al g 0.54 0.00 0.50 Al g 0.46 0.46 0.50 Al g 0.00 0.54 0.50 Cl b 0.00 0.00 0.25 Cl b 0.00 0.00 0.75 Se i 0.34 0.50 0.05 Se i 0.16 0.66 0.05 Se i 0.50 0.84 0.05 Se i 0.39 0.07 0.18 Se i 0.93 0.33 0.18 Se i 0.67 0.61 0.18 Se i 0.67 0.07 0.32 Se i 0.39 0.33 0.32 Se i 0.93 0.61 0.32 Se i 0.16 0.50 0.45 Se i 0.50 0.66 0.45 Se i 0.34 0.84 0.45 Se i 0.50 0.16 0.55 Se i 0.84 0.34 0.55 Se i 0.66 0.50 0.55 Se i 0.33 0.39 0.68 Se i 0.07 0.67 0.68 Se i 0.61 0.93 0.68 Se i 0.07 0.39 0.82 Se i 0.61 0.67 0.82 Se i 0.33 0.93 0.82 Se i 0.66 0.16 0.95 Se i 0.50 0.34 0.95 Se i 0.84 0.50 0.95 Rb g 0.20 0.20 0.00 Rb g 1.00 0.80 0.00 Rb g 0.80 1.00 0.00 Rb g 0.20 0.00 0.50 Rb g 0.00 0.20 0.50 Rb g 0.80 0.80 0.50 Np c 0.33 0.67 0.25 Np c 0.67 0.33 0.75" pbc="T T T"
B        7.13910000       3.03299417       1.05600000
B        5.65740000       3.96622314       1.05600000
B        7.20645000       4.78279850       1.05600000
B        5.85945000       2.44972606       2.11200000
B        8.41875000       3.84956952       2.11200000
B        5.92680000       5.36606661       2.11200000
B        7.61055000       2.44972606       2.68800000
B        5.05125000       3.84956952       2.68800000
B        7.54320000       5.36606661       2.68800000
B        6.19620000       3.03299417       3.74400000
B        7.67790000       3.96622314       3.74400000
B        6.12885000       4.78279850       3.74400000
B       -0.47145000       6.88256369       5.85600000
B        1.07760000       7.69913904       5.85600000
B       -0.40410000       8.63236802       5.85600000
B        0.80820000       6.29929558       6.91200000
B       -1.68375000       7.81579267       6.91200000
B        0.87555000       9.21563613       6.91200000
B       -0.80820000       6.29929558       7.48800000
B        1.68375000       7.81579267       7.48800000
B       -0.87555000       9.21563613       7.48800000
B        0.60615000       6.88256369       8.54400000
B       -0.94290000       7.69913904       8.54400000
B        0.53880000       8.63236802       8.54400000
Al      10.37190000       5.36606661       0.00000000
Al       3.63690000       6.29929558       0.00000000
Al      -0.53880000      11.66536219       0.00000000
Al       7.27380000       0.00000000       4.80000000
Al       3.09810000       5.36606661       4.80000000
Al      -3.63690000       6.29929558       4.80000000
Cl       0.00000000       0.00000000       2.40000000
Cl       0.00000000       0.00000000       7.20000000
Se       1.21230000       5.83268109       0.48000000
Se      -2.28990000       7.69913904       0.48000000
Se       1.07760000       9.79890424       0.48000000
Se       4.78185000       0.81657535       1.72800000
Se      10.30455000       3.84956952       1.72800000
Se       4.91655000       7.11587094       1.72800000
Se       8.55345000       0.81657535       3.07200000
Se       3.03075000       3.84956952       3.07200000
Se       8.41875000       7.11587094       3.07200000
Se      -1.21230000       5.83268109       4.32000000
Se       2.28990000       7.69913904       4.32000000
Se      -1.07760000       9.79890424       4.32000000
Se       5.65740000       1.86645795       5.28000000
Se       9.02490000       3.96622314       5.28000000
Se       5.52270000       5.83268109       5.28000000
Se       1.81845000       4.54949125       6.52800000
Se      -3.56955000       7.81579267       6.52800000
Se       1.95315000      10.84878684       6.52800000
Se      -1.68375000       4.54949125       7.87200000
Se       3.70425000       7.81579267       7.87200000
Se      -1.81845000      10.84878684       7.87200000
Se       7.81260000       1.86645795       9.12000000
Se       4.44510000       3.96622314       9.12000000
Se       7.94730000       5.83268109       9.12000000
Rb       1.34700000       2.33307244       0.00000000
Rb       8.08200000       9.33228975       0.00000000
Rb       4.04100000      11.66536219       0.00000000
Rb       2.69400000       0.00000000       4.80000000
Rb      -1.34700000       2.33307244       4.80000000
Rb       5.38800000       9.33228975       4.80000000
Np      -0.06735000       7.81579267       2.40000000
Np       6.80235000       3.84956952       7.20000000
20
Lattice="8.19 0.0 0.0 -4.094999999999998 7.0927480569945525 0.0 0.0 0.0 7.78" Properties=species:S:1:pos:R:3 wyckoff_letters="_JSON [\"j\", \"j\", \"j\", \"j\", \"j\", \"d\", \"e\", \"j\", \"j\", \"j\", \"k\", \"l\", \"l\", \"l\", \"l\", \"l\", \"l\", \"k\", \"k\", \"k\"]" formula=Th3In6Ir5Au6 source="Au In Ir Th | 18 |" target="A3B3C2D Au In Ir Th | Au4In6Ir2Th6 | SG 174 P-6 | OX: CN:20;29;29;17;18;14 NN:2.94;2.83;2.93;2.82;3.20;2.99 NP:Au-Au:3.89;Au-In:2.83;Au-Ir:4.55;Au-Th:3.16;In-In:3.70;In-Ir:2.89;In-Th:3.35;Ir-Ir:3.89;Ir-Th:2.99;Th-Th:3.85 WP:l:4;d:2;j:3;e:1;k:3;k:3 | 8.19 8.19 7.78 90.0 90.0 120.0 | In j 0.66 0.06 0.00 In j 0.39 0.34 0.00 In j 0.94 0.61 0.00 In j 0.39 0.06 0.50 In j 0.94 0.34 0.50 In d 0.33 0.67 0.25 Ir e 0.67 0.33 0.25 Ir j 0.66 0.03 0.50 Ir j 0.36 0.34 0.50 Ir j 0.97 0.64 0.50 Ir k 0.66 0.64 0.75 Au l 0.04 0.28 0.25 Au l 0.72 0.76 0.25 Au l 0.24 0.96 0.25 Au l 0.24 0.28 0.75 Au l 0.04 0.76 0.75 Au l 0.72 0.96 0.75 Th k 0.65 0.20 0.25 Th k 0.80 0.35 0.75 Th k 0.51 0.35 0.75" pbc="T T T"
In       5.15970000       0.42556488       0.00000000
In       1.80180000       2.41153434       0.00000000
In       5.20065000       4.32657631       0.00000000
In       2.94840000       0.42556488       3.89000000
In       6.30630000       2.41153434       3.89000000
In      -0.04095000       4.75214120       1.94500000
Ir       4.13595000       2.34060686       1.94500000
Ir       5.28255000       0.21278244       3.89000000
Ir       1.55610000       2.41153434       3.89000000
Ir       5.32350000       4.53935876       3.89000000
Ir       2.78460000       4.53935876       5.83500000
Au      -0.81900000       1.98596946       1.94500000
Au       2.78460000       5.39048852       1.94500000
Au      -1.96560000       6.80903813       1.94500000
Au       0.81900000       1.98596946       5.83500000
Au      -2.78460000       5.39048852       5.83500000
Au       1.96560000       6.80903813       5.83500000
Th       4.50450000       1.41854961       1.94500000
Th       5.11875000       2.48246182       5.83500000
Th       2.74365000       2.48246182       5.83500000
10
Lattice="3.59 0.0 0.0 0.0 3.59 0.0 0.0 0.0 9.52" Properties=species:S:1:pos:R:3 wyckoff_letters="_JSON [\"h\", \"g\", \"g\", \"h\", \"j\", \"j\", \"j\", \"j\", \"d\", \"a\"]" formula=TbHo(FeB)4 source="B Fe Ho Tb | 10 |" target="A4B4CD B Fe Ho Tb | Fe4HoTbB4 | SG 123 P4/mmm | OX:-3;-3;+2;+2;+2 CN:38;38;38;46;46 NN:1.99;1.99;1.99;3.00;2.96 NP:B-B:3.10;B-Fe:1.99;B-Ho:3.00;B-Tb:2.96;Fe-Fe:2.54;Fe-Ho:3.02;Fe-Tb:2.98;Ho-Ho:3.59;Tb-Tb:3.59 WP:g:2;h:2;j:4;a:1;d:1 | 3.59 3.59 9.52 90.0 90.0 90.0 | B h 0.50 0.50 0.16 B g 0.00 0.00 0.35 B g 0.00 0.00 0.65 B h 0.50 0.50 0.84 Fe j 0.50 0.00 0.25 Fe j 0.00 0.50 0.25 Fe j 0.50 0.00 0.75 Fe j 0.00 0.50 0.75 Tb d 0.50 0.50 0.50 Ho a 0.00 0.00 0.00" pbc="T T T"
B        1.79500000       1.79500000       1.52320000
B        0.00000000       0.00000000       3.33200000
B        0.00000000       0.00000000       6.18800000
B        1.79500000       1.79500000       7.99680000
Fe       1.79500000       0.00000000       2.38000000
Fe       0.00000000       1.79500000       2.38000000
Fe       1.79500000       0.00000000       7.14000000
Fe       0.00000000       1.79500000       7.14000000
Tb       1.79500000       1.79500000       4.76000000
Ho       0.00000000       0.00000000       0.00000000
80
Lattice="11.32 0.0 0.0 -3.778693646526288 10.670701679163459 0.0 -3.778693646526288 -5.346727841186211 9.234520871056933" Properties=species:S:1:pos:R:3 wyckoff_letters="_JSON [\"h\", \"h\", \"h\", \"h\", \"h\", \"h\", \"h\", \"h\", \"h\", \"h\", \"h\", \"h\", \"h\", \"h\", \"h\", \"h\", \"h\", \"h\", \"h\", \"h\", \"h\", \"h\", \"h\", \"h\", \"h\", \"h\", \"h\", \"h\", \"h\", \"h\", \"h\", \"h\", \"h\", \"h\", \"h\", \"h\", \"h\", \"h\", \"h\", \"h\", \"h\", \"h\", \"h\", \"h\", \"h\", \"h\", \"h\", \"h\", \"d\", \"d\", \"d\", \"d\", \"d\", \"d\", \"d\", \"d\", \"d\", \"d\", \"d\", \"d\", \"a\", \"a\", \"a\", \"a\", \"a\", \"a\", \"a\", \"a\", \"c\", \"c\", \"c\", \"c\", \"c\", \"c\", \"c\", \"c\", \"c\", \"c\", \"c\", \"c\"]" formula=La3Y2(FeO4)3 source="Fe La O Y | 80 |" target="A12B3C3D2 Fe La O Y | Fe12La12Y8O48 | SG 230 Ia-3d | OX:+3;+3;-2;+3 CN:38;38;37;42 NN:1.89;2.48;1.99;2.27 NP:Fe-Fe:4.06;Fe-La:3.34;Fe-O:1.89;Fe-Y:3.66;La-La:4.06;La-O:2.48;La-Y:3.66;O-O:2.83;O-Y:2.27 WP:d:12;c:12;h:48;a:8 | 11.32 11.32 11.32 109.5 109.5 109.5 | O h 0.22 0.13 0.03 O h 0.31 0.90 0.03 O h 0.87 0.40 0.09 O h 0.72 0.69 0.09 O h 0.63 0.41 0.10 O h 0.97 0.69 0.10 O h 0.03 0.22 0.13 O h 0.60 0.91 0.13 O h 0.22 0.59 0.19 O h 0.47 0.60 0.19 O h 0.13 0.03 0.22 O h 0.59 0.19 0.22 O h 0.47 0.37 0.28 O h 0.31 0.91 0.28 O h 0.90 0.03 0.31 O h 0.91 0.28 0.31 O h 0.28 0.47 0.37 O h 0.59 0.90 0.37 O h 0.81 0.53 0.40 O h 0.09 0.87 0.40 O h 0.81 0.78 0.41 O h 0.10 0.63 0.41 O h 0.60 0.19 0.47 O h 0.37 0.28 0.47 O h 0.63 0.72 0.53 O h 0.40 0.81 0.53 O h 0.19 0.22 0.59 O h 0.90 0.37 0.59 O h 0.19 0.47 0.60 O h 0.91 0.13 0.60 O h 0.41 0.10 0.63 O h 0.72 0.53 0.63 O h 0.09 0.72 0.69 O h 0.10 0.97 0.69 O h 0.69 0.09 0.72 O h 0.53 0.63 0.72 O h 0.41 0.81 0.78 O h 0.87 0.97 0.78 O h 0.53 0.40 0.81 O h 0.78 0.41 0.81 O h 0.40 0.09 0.87 O h 0.97 0.78 0.87 O h 0.03 0.31 0.90 O h 0.37 0.59 0.90 O h 0.28 0.31 0.91 O h 0.13 0.60 0.91 O h 0.69 0.10 0.97 O h 0.78 0.87 0.97 Fe d 0.87 0.25 0.13 Fe d 0.75 0.88 0.13 Fe d 0.62 0.38 0.25 Fe d 0.12 0.87 0.25 Fe d 0.25 0.62 0.38 Fe d 0.62 0.75 0.38 Fe d 0.38 0.25 0.62 Fe d 0.75 0.38 0.62 Fe d 0.88 0.13 0.75 Fe d 0.38 0.62 0.75 Fe d 0.25 0.13 0.87 Fe d 0.12 0.75 0.87 Y a 0.00 0.00 0.00 Y a 0.50 0.00 0.00 Y a 0.00 0.50 0.00 Y a 0.50 0.50 0.00 Y a 0.00 0.00 0.50 Y a 0.50 0.00 0.50 Y a 0.00 0.50 0.50 Y a 0.50 0.50 0.50 La c 0.25 0.38 0.13 La c 0.38 0.75 0.13 La c 0.38 0.13 0.25 La c 0.87 0.63 0.25 La c 0.75 0.13 0.38 La c 0.13 0.25 0.38 La c 0.87 0.75 0.62 La c 0.25 0.87 0.62 La c 0.13 0.37 0.75 La c 0.62 0.87 0.75 La c 0.63 0.25 0.87 La c 0.75 0.63 0.87" pbc="T T T"
O        1.88580902       1.22678938       0.27703563
O       -0.00498509       9.44322968       0.27703563
O        7.99684011       3.78707517       0.83110688
O        5.20301896       6.88157865       0.83110688
O        5.20446624       3.84031490       0.92345209
O        7.99523202       6.82811137       0.92345209
O       -0.98294278       1.65247975       1.20048771
O        2.86215861       9.01526391       1.20048771
O       -0.45698104       5.27983570       1.75455897
O        2.33523202       5.38654272       1.75455897
O        0.52692659      -0.85615907       2.03159459
O        5.12953560       0.85115319       2.03159459
O        2.86424913       2.45107583       2.58566584
O       -0.98744544       8.21325473       2.58566584
O        8.90324416      -1.33736458       2.86270147
O        8.07177075       1.33031084       2.86270147
O       -0.00450266       3.03694049       3.41677272
O        1.87985907       7.62534221       3.41677272
O        5.65501491       3.51678075       3.69380835
O       -3.78014093       7.14481932       3.69380835
O        4.67255456       6.13098889       3.78615356
O       -2.79784139       4.53038364       3.78615356
O        4.29806219      -0.48552877       4.34022481
O        1.35437977       0.47483438       4.34022481
O        2.40823294       4.84913945       4.89429606
O       -0.53544949       5.80950260       4.89429606
O       -0.90994185      -0.80701506       5.44836731
O        6.56045410       0.79359019       5.44836731
O       -1.89240220       1.80719308       5.54071252
O        7.54275364      -1.82084549       5.54071252
O        1.88275364      -2.30136837       5.81774815
O        3.76711537       2.28703335       5.81774815
O       -4.30915804       3.99366300       6.37181940
O       -5.14063145       6.66133842       6.37181940
O        4.75005815      -2.88928089       6.64885503
O        0.89836358       2.87289801       6.64885503
O       -1.36692290       4.47282064       7.20292628
O        3.23568612       6.18013291       7.20292628
O        1.42738069      -0.06256888       7.47996191
O        4.21959375       0.04413814       7.47996191
O        0.90045410      -3.69129007       8.03403316
O        4.74555548       3.67149409       8.03403316
O       -4.23261931      -1.50413754       8.31106878
O       -1.44185353       1.48365893       8.31106878
O       -1.44040625      -1.55760481       8.40341399
O       -4.23422741       1.53689867       8.40341399
O        3.76759780      -4.11925584       8.95748524
O        1.87680369       4.09718445       8.95748524
Fe       8.41249641       1.97260080       1.20048771
Fe       4.67351942       8.69514286       1.20048771
Fe       4.63782300       2.71818468       2.30863022
Fe      -2.87373688       7.94682850       2.30863022
Fe      -0.94869365       4.58407846       3.50911793
Fe       2.74847618       5.97126968       3.50911793
Fe       1.01413653      -0.64729584       5.72540294
Fe       4.71130635       0.73989538       5.72540294
Fe       6.63634959      -2.62285466       6.92589065
Fe      -0.87521030       2.60578916       6.92589065
Fe      -0.94869365      -3.26446200       8.03403316
Fe      -4.76308371       3.35137304       8.03403316
Y        0.00000000       0.00000000       0.00000000
Y        5.66000000       0.00000000       0.00000000
Y       -1.88934682       5.33535084       0.00000000
Y        3.77065318       5.33535084       0.00000000
Y       -1.88934682      -2.67336392       4.61726044
Y        3.77065318      -2.67336392       4.61726044
Y       -3.77869365       2.66198692       4.61726044
Y        1.88130635       2.66198692       4.61726044
La       0.90286624       3.35979202       1.20048771
La       0.97634959       7.30795164       1.20048771
La       2.86569641       0.05050926       2.30863022
La       6.52314959       5.38586010       2.30863022
La       6.56286624      -0.64456536       3.50911793
La      -0.90897700       0.63591884       3.50911793
La       4.67158970       4.68805500       5.72540294
La      -2.80025353       5.96853920       5.72540294
La      -2.76053688      -0.06188626       6.92589065
La       0.89691629       5.27346458       6.92589065
La       2.89946312      -1.98397780       8.03403316
La       2.82195953       2.07088884       8.03403316
36
Lattice="6.01 0.0 0.0 0.0 9.39 0.0 0.0 4.880394542057764 19.869407366951155" Properties=species:S:1:pos:R:3 wyckoff_letters="_JSON [\"e\", \"e\", \"e\", \"e\", \"e\", \"e\", \"e\", \"e\", \"e\", \"e\", \"e\", \"e\", \"e\", \"e\", \"e\", \"e\", \"e\", \"e\", \"e\", \"e\", \"e\", \"e\", \"e\", \"e\", \"e\", \"e\", \"e\", \"e\", \"e\", \"e\", \"e\", \"e\", \"e\", \"e\", \"e\", \"e\"]" formula=CsPuS(BrO2)2 source="Br Cs O Pu S | 36 |" target="A4B2CDE Br Cs O Pu S | Cs4Pu4Br8O16S4 | SG 14 P2_1/c | OX: CN:19;15;22;16;19 NN:2.82;3.42;1.54;2.37;1.48 NP:Br-Br:4.66;Br-Cs:3.55;Br-O:3.44;Br-Pu:2.82;Br-S:3.74;Cs-Cs:4.63;Cs-O:3.42;Cs-Pu:4.77;Cs-S:4.27;O-O:2.43;O-Pu:2.37;O-S:1.47;Pu-Pu:4.14;Pu-S:3.21;S-S:4.85 WP:e:8;e:4;e:16;e:4;e:4 | 6.01 9.39 20.46 76.2 90.0 90.0 | O e 0.43 0.24 0.03 O e 0.81 0.35 0.14 O e 0.38 0.51 0.23 O e 0.88 0.18 0.24 O e 0.38 0.82 0.26 O e 0.88 0.49 0.27 O e 0.31 0.65 0.36 O e 0.93 0.76 0.47 O e 0.07 0.24 0.53 O e 0.69 0.35 0.64 O e 0.12 0.51 0.73 O e 0.62 0.18 0.74 O e 0.12 0.82 0.76 O e 0.62 0.49 0.77 O e 0.19 0.65 0.86 O e 0.57 0.76 0.97 S e 0.86 0.23 0.09 S e 0.36 0.77 0.41 S e 0.64 0.23 0.59 S e 0.14 0.77 0.91 Br e 0.14 0.86 0.09 Br e 0.63 0.82 0.11 Br e 0.13 0.18 0.39 Br e 0.64 0.14 0.41 Br e 0.36 0.86 0.59 Br e 0.87 0.82 0.61 Br e 0.37 0.18 0.89 Br e 0.86 0.14 0.91 Cs e 0.06 0.65 0.20 Cs e 0.56 0.35 0.30 Cs e 0.44 0.65 0.70 Cs e 0.94 0.35 0.80 Pu e 0.64 0.24 0.02 Pu e 0.14 0.76 0.48 Pu e 0.86 0.24 0.52 Pu e 0.36 0.76 0.98" pbc="T T T"
O        2.58430000       2.40001184       0.59608222
O        4.86810000       3.96975524       2.78171703
O        2.28380000       5.91139074       4.56996369
O        5.28880000       2.86149469       4.76865777
O        2.28380000       8.96870258       5.16604592
O        5.28880000       5.91880653       5.36473999
O        1.86310000       7.86044204       7.15298665
O        5.58930000       9.43018543       9.33862146
O        0.42070000       4.84020911      10.53078590
O        4.14690000       6.40995251      12.71642071
O        0.72120000       8.35158802      14.50466738
O        3.72620000       5.30169196      14.70336145
O        0.72120000      11.40889985      15.10074960
O        3.72620000       8.35900380      15.29944367
O        1.14190000      10.30063931      17.08769034
O        3.42570000      11.87038271      19.27332515
S        5.16860000       2.59893551       1.78824666
S        2.16360000       9.23126176       8.14645702
S        3.84640000       5.03913278      11.72295035
S        0.84140000      11.67145903      18.08116070
Br       0.84140000       8.51463551       1.78824666
Br       3.78630000       8.23664340       2.18563481
Br       0.78130000       3.59355387       7.74906887
Br       3.84640000       3.31556176       8.14645702
Br       2.16360000      10.95483278      11.72295035
Br       5.22870000      10.67684067      12.12033849
Br       2.22370000       6.03375114      17.68377256
Br       5.16860000       5.75575903      18.08116070
Cs       0.36060000       7.07957891       3.97388147
Cs       3.36560000       4.75061836       5.96082221
Cs       2.64440000       9.51977618      13.90858516
Cs       5.64940000       7.19081563      15.89552589
Pu       3.84640000       2.35120789       0.39738815
Pu       0.84140000       9.47898938       9.53731554
Pu       5.16860000       4.79140516      10.33209183
Pu       2.16360000      11.91918665      19.47201922
29
Lattice="6.48 0.0 0.0 0.0 9.18 0.0 -3.257234742274974 -4.573525366640468 7.921956043453729" Properties=species:S:1:pos:R:3 wyckoff_letters="_JSON [\"i\", \"i\", \"i\", \"i\", \"i\", \"i\", \"i\", \"i\", \"i\", \"i\", \"i\", \"i\", \"i\", \"i\", \"i\", \"i\", \"a\", \"i\", \"i\", \"i\", \"i\", \"i\", \"i\", \"i\", \"i\", \"i\", \"i\", \"i\", \"i\"]" formula=K(V3S4)4 source="K S V | 29 |" target="A16B12C K S V | KV12S16 | SG 2 P-1 | OX: CN:24;30;33 NN:3.10;2.32;2.32 NP:K-S:3.10;K-V:4.13;S-S:3.18;S-V:2.31;V-V:2.71 WP:a:1;i:16;i:12 | 6.48 9.18 9.71 118.1 109.6 90.0 | S i 0.65 0.35 0.05 S i 0.15 0.35 0.05 S i 0.77 0.95 0.29 S i 0.28 0.95 0.30 S i 0.54 0.67 0.33 S i 0.04 0.67 0.33 S i 0.55 0.29 0.35 S i 0.05 0.30 0.35 S i 0.95 0.70 0.65 S i 0.45 0.71 0.65 S i 0.96 0.33 0.67 S i 0.46 0.33 0.67 S i 0.72 0.05 0.70 S i 0.23 0.05 0.71 S i 0.85 0.65 0.95 S i 0.35 0.65 0.95 K a 0.00 0.00 0.00 V i 0.19 0.63 0.12 V i 0.69 0.63 0.12 V i 0.81 0.49 0.37 V i 0.31 0.49 0.37 V i 0.63 0.12 0.49 V i 0.11 0.12 0.49 V i 0.89 0.88 0.51 V i 0.37 0.88 0.51 V i 0.69 0.51 0.63 V i 0.19 0.51 0.63 V i 0.31 0.37 0.88 V i 0.81 0.37 0.88" pbc="T T T"
S        4.04913826       2.98432373       0.39609780
S        0.80913826       2.98432373       0.39609780
S        4.04500192       7.39467764       2.29736725
S        0.83722958       7.34894239       2.37658681
S        2.42431254       4.64133663       2.61424549
S       -0.81568746       4.64133663       2.61424549
S        2.42396784       1.06146612       2.77268462
S       -0.81603216       1.15326612       2.77268462
S        4.03879742       3.45320851       5.14927143
S        0.79879742       3.54500851       5.14927143
S        4.03845272      -0.03486200       5.30771055
S        0.79845272      -0.03486200       5.30771055
S        2.38553568      -2.74246776       5.54536923
S       -0.82223667      -2.78820301       5.62458879
S        2.41362699       1.62215090       7.52585824
S       -0.82637301       1.62215090       7.52585824
K        0.00000000       0.00000000       0.00000000
V        0.84033183       5.23457696       0.95063473
V        4.08033183       5.23457696       0.95063473
V        4.04362315       2.80599561       2.93112374
V        0.80362315       2.80599561       2.93112374
V        2.48635498      -1.13942743       3.88175846
V       -0.88324502      -1.13942743       3.88175846
V        4.10601028       5.74590206       4.04019758
V        0.73641028       5.74590206       4.04019758
V        2.41914211       1.80047902       4.99083231
V       -0.82085789       1.80047902       4.99083231
V       -0.85756657      -0.62810232       6.97132132
V        2.38243343      -0.62810232       6.97132132
16
Lattice="15.69 0.0 0.0 14.988317501699571 4.639659305191092 0.0 14.988317501699571 2.2667699022955348 4.048233278640621" Properties=species:S:1:pos:R:3 wyckoff_letters="_JSON [\"a\", \"c\", \"c\", \"c\", \"c\", \"c\", \"c\", \"c\", \"c\", \"c\", \"c\", \"c\", \"c\", \"c\", \"c\", \"b\"]" formula=Y3Ho(InPd2)4 source="Ho In Pd Y | 16 |" target="A8B4C3D Ho In Pd Y | HoIn4Pd8Y3 | SG 166 R-3m | OX: CN:26;26;26;26;26 NN:2.96;2.87;2.87;2.89;2.96 NP:Ho-Ho:4.80;Ho-In:3.48;Ho-Pd:2.96;Ho-Y:4.80;In-In:4.80;In-Pd:2.87;In-Y:3.39;Pd-Pd:3.30;Pd-Y:2.96;Y-Y:4.80 WP:b:1;c:4;c:8;a:1;c:2 | 15.69 15.69 15.69 17.2 17.2 17.2 | Y a 0.00 0.00 0.00 Y c 0.25 0.25 0.25 Y c 0.75 0.75 0.75 Pd c 0.06 0.06 0.06 Pd c 0.19 0.19 0.19 Pd c 0.31 0.31 0.31 Pd c 0.44 0.44 0.44 Pd c 0.56 0.56 0.56 Pd c 0.69 0.69 0.69 Pd c 0.81 0.81 0.81 Pd c 0.94 0.94 0.94 In c 0.13 0.13 0.13 In c 0.38 0.38 0.38 In c 0.62 0.62 0.62 In c 0.87 0.87 0.87 Ho b 0.50 0.50 0.50" pbc="T T T"
Y        0.00000000       0.00000000       0.00000000
Y       11.41665875       1.72660730       1.01205832
Y       34.24997625       5.17982191       3.03617496
Pd       2.73999810       0.41438575       0.24289400
Pd       8.67666065       1.31222155       0.76916432
Pd      14.15665685       2.14099305       1.25495232
Pd      20.09331940       3.03882885       1.78122264
Pd      25.57331560       3.86760036       2.26701064
Pd      31.50997815       4.76543615       2.79328096
Pd      36.98997435       5.59420766       3.27906896
Pd      42.92663690       6.49204346       3.80533928
In       5.93666255       0.89783580       0.52627033
In      17.35332130       2.62444310       1.53832865
In      28.31331370       4.28198611       2.50990463
In      39.72997245       6.00859341       3.52196295
Ho      22.83331750       3.45321460       2.02411664
12
Lattice="7.96 0.0 0.0 -3.979999999999998 6.893562214124132 0.0 -1.3141483336798865 -2.276171682615541 8.178028896277239" Properties=species:S:1:pos:R:3 wyckoff_letters="_JSON [\"h\", \"d\", \"h\", \"g\", \"g\", \"i\", \"j\", \"j\", \"j\", \"j\", \"i\", \"a\"]" formula=K3Sr2UTe6 source="K Sr Te U | 12 |" target="A6B3C2D K Sr Te U | K3Sr2UTe6 | SG 12 C2/m | OX:+1;+1;+2;-2;+2;+3 CN:18;18;18;18;15;15 NN:3.54;3.52;3.34;3.15;3.04;3.04 NP:K-K:4.59;K-Sr:4.87;K-Te:3.54;K-U:4.88;Sr-Sr:4.60;Sr-Te:3.32;Sr-U:4.87;Te-Te:4.34;Te-U:3.04 WP:d:1;h:2;g:2;i:2;j:4;a:1 | 7.96 7.96 8.59 98.8 98.8 120.0 | K h 0.17 0.83 0.50 K d 0.50 0.50 0.50 K h 0.83 0.17 0.50 Sr g 0.33 0.67 0.00 Sr g 0.67 0.33 1.00 Te i 0.72 0.72 0.21 Te j 0.41 0.07 0.21 Te j 0.07 0.41 0.21 Te j 0.93 0.59 0.79 Te j 0.59 0.93 0.79 Te i 0.28 0.28 0.79 U a 0.00 0.00 0.00" pbc="T T T"
K       -2.60727417       4.58357080       4.08901445
K        1.33292583       2.30869527       4.08901445
K        5.27312583       0.03381974       4.08901445
Sr      -0.03980000       4.61868668       0.00000000
Sr       2.70565167      -0.00129615       8.17802890
Te       2.58962885       4.48536874       1.71738607
Te       2.70902885       0.00455330       1.71738607
Te      -1.35057115       2.34836445       1.71738607
Te       4.01642282       2.26902608       6.46064283
Te      -0.04317718       4.61283723       6.46064283
Te       0.07622282       0.13202179       6.46064283
U        0.00000000       0.00000000       0.00000000
75
Lattice="5.96 0.0 0.0 0.0 13.2 0.0 0.0 0.0 14.21" Properties=species:S:1:pos:R:3 wyckoff_letters="_JSON [\"d\", \"d\", \"d\", \"d\", \"d\", \"d\", \"d\", \"d\", \"d\", \"d\", \"d\", \"d\", \"d\", \"d\", \"d\", \"d\", \"c\", \"c\", \"c\", \"c\", \"d\", \"d\", \"d\", \"d\", \"d\", \"d\", \"d\", \"d\", \"d\", \"d\", \"d\", \"d\", \"d\", \"d\", \"d\", \"d\", \"c\", \"c\", \"c\", \"c\", \"d\", \"d\", \"d\", \"d\", \"d\", \"d\", \"d\", \"d\", \"d\", \"d\", \"c\", \"c\", \"d\", \"d\", \"d\", \"d\", \"c\", \"c\", \"d\", \"d\", \"d\", \"d\", \"c\", \"c\", \"d\", \"d\", \"d\", \"d\", \"c\", \"c\", \"d\", \"d\", \"c\", \"c\", \"c\"]" formula=Rb12Er3Si12(HO5)8 source="Er H O Rb Si | 76 |" target="A10B3C3D2E Er H O Rb Si | Er4Rb12H8O40Si12 | SG 62 Pnma | OX:+3;+1;-2;-2;+1;+1;+4;+4 CN:40;26;32;30;31;30;32;34 NN:2.20;1.02;1.62;1.49;2.77;2.91;1.61;1.62 NP:Er-H:3.50;Er-O:2.20;Er-Rb:3.71;Er-Si:3.44;H-H:2.74;H-O:1.02;H-Rb:3.13;H-Si:2.39;O-O:2.54;O-Rb:2.77;O-Si:1.61;Rb-Rb:3.91;Rb-Si:3.41;Si-Si:3.04 WP:c:4;d:8;c:8;d:32;c:4;d:8;c:4;d:8 | 5.96 13.20 14.21 90.0 90.0 90.0 | H d 0.89 0.43 0.05 H d 0.61 0.93 0.05 H d 0.89 0.43 0.45 H d 0.61 0.93 0.45 H d 0.39 0.07 0.55 H d 0.11 0.57 0.55 H d 0.39 0.07 0.95 H d 0.11 0.57 0.95 O d 0.90 0.38 0.01 O d 0.60 0.88 0.01 O d 0.62 0.02 0.13 O d 0.88 0.52 0.13 O d 0.18 0.04 0.13 O d 0.32 0.54 0.13 O d 0.43 0.20 0.16 O d 0.07 0.70 0.16 O c 0.83 0.19 0.25 O c 0.58 0.36 0.25 O c 0.67 0.69 0.25 O c 0.92 0.86 0.25 O d 0.43 0.20 0.34 O d 0.07 0.70 0.34 O d 0.18 0.04 0.37 O d 0.32 0.54 0.37 O d 0.62 0.02 0.37 O d 0.88 0.52 0.37 O d 0.90 0.38 0.49 O d 0.60 0.88 0.49 O d 0.40 0.12 0.51 O d 0.10 0.62 0.51 O d 0.12 0.48 0.63 O d 0.38 0.98 0.63 O d 0.68 0.46 0.63 O d 0.82 0.96 0.63 O d 0.93 0.30 0.66 O d 0.57 0.80 0.66 O c 0.08 0.14 0.75 O c 0.33 0.31 0.75 O c 0.42 0.64 0.75 O c 0.17 0.81 0.75 O d 0.93 0.30 0.84 O d 0.57 0.80 0.84 O d 0.68 0.46 0.87 O d 0.82 0.96 0.87 O d 0.12 0.48 0.87 O d 0.38 0.98 0.87 O d 0.40 0.12 0.99 O d 0.10 0.62 0.99 Si d 0.41 0.09 0.11 Si d 0.09 0.59 0.11 Si c 0.58 0.24 0.25 Si c 0.92 0.74 0.25 Si d 0.41 0.09 0.39 Si d 0.09 0.59 0.39 Si d 0.91 0.41 0.61 Si d 0.59 0.91 0.61 Si c 0.08 0.26 0.75 Si c 0.42 0.76 0.75 Si d 0.91 0.41 0.89 Si d 0.59 0.91 0.89 Rb d 0.41 0.36 0.01 Rb d 0.09 0.86 0.01 Rb c 0.09 0.36 0.25 Rb c 0.41 0.86 0.25 Rb d 0.41 0.36 0.49 Rb d 0.09 0.86 0.49 Rb d 0.91 0.14 0.51 Rb d 0.59 0.64 0.51 Rb c 0.59 0.14 0.75 Rb c 0.91 0.64 0.75 Rb d 0.91 0.14 0.99 Rb d 0.59 0.64 0.99 Er c 0.91 0.03 0.25 Er c 0.59 0.53 0.25 Er c 0.41 0.47 0.75 Er c 0.09" pbc="T T T"
H        5.30440000       5.67600000       0.71050000
H        3.63560000      12.27600000       0.71050000
H        5.30440000       5.67600000       6.39450000
H        3.63560000      12.27600000       6.39450000
H        2.32440000       0.92400000       7.81550000
H        0.65560000       7.52400000       7.81550000
H        2.32440000       0.92400000      13.49950000
H        0.65560000       7.52400000      13.49950000
O        5.36400000       5.01600000       0.14210000
O        3.57600000      11.61600000       0.14210000
O        3.69520000       0.26400000       1.84730000
O        5.24480000       6.86400000       1.84730000
O        1.07280000       0.52800000       1.84730000
O        1.90720000       7.12800000       1.84730000
O        2.56280000       2.64000000       2.27360000
O        0.41720000       9.24000000       2.27360000
O        4.94680000       2.50800000       3.55250000
O        3.45680000       4.75200000       3.55250000
O        3.99320000       9.10800000       3.55250000
O        5.48320000      11.35200000       3.55250000
O        2.56280000       2.64000000       4.83140000
O        0.41720000       9.24000000       4.83140000
O        1.07280000       0.52800000       5.25770000
O        1.90720000       7.12800000       5.25770000
O        3.69520000       0.26400000       5.25770000
O        5.24480000       6.86400000       5.25770000
O        5.36400000       5.01600000       6.96290000
O        3.57600000      11.61600000       6.96290000
O        2.38400000       1.58400000       7.24710000
O        0.59600000       8.18400000       7.24710000
O        0.71520000       6.33600000       8.95230000
O        2.26480000      12.93600000       8.95230000
O        4.05280000       6.07200000       8.95230000
O        4.88720000      12.67200000       8.95230000
O        5.54280000       3.96000000       9.37860000
O        3.39720000      10.56000000       9.37860000
O        0.47680000       1.84800000      10.65750000
O        1.96680000       4.09200000      10.65750000
O        2.50320000       8.44800000      10.65750000
O        1.01320000      10.69200000      10.65750000
O        5.54280000       3.96000000      11.93640000
O        3.39720000      10.56000000      11.93640000
O        4.05280000       6.07200000      12.36270000
O        4.88720000      12.67200000      12.36270000
O        0.71520000       6.33600000      12.36270000
O        2.26480000      12.93600000      12.36270000
O        2.38400000       1.58400000      14.06790000
O        0.59600000       8.18400000      14.06790000
Si       2.44360000       1.18800000       1.56310000
Si       0.53640000       7.78800000       1.56310000
Si       3.45680000       3.16800000       3.55250000
Si       5.48320000       9.76800000       3.55250000
Si       2.44360000       1.18800000       5.54190000
Si       0.53640000       7.78800000       5.54190000
Si       5.42360000       5.41200000       8.66810000
Si       3.51640000      12.01200000       8.66810000
Si       0.47680000       3.43200000      10.65750000
Si       2.50320000      10.03200000      10.65750000
Si       5.42360000       5.41200000      12.64690000
Si       3.51640000      12.01200000      12.64690000
Rb       2.44360000       4.75200000       0.14210000
Rb       0.53640000      11.35200000       0.14210000
Rb       0.53640000       4.75200000       3.55250000
Rb       2.44360000      11.35200000       3.55250000
Rb       2.44360000       4.75200000       6.96290000
Rb       0.53640000      11.35200000       6.96290000
Rb       5.42360000       1.84800000       7.24710000
Rb       3.51640000       8.44800000       7.24710000
Rb       3.51640000       1.84800000      10.65750000
Rb       5.42360000       8.44800000      10.65750000
Rb       5.42360000       1.84800000      14.06790000
Rb       3.51640000       8.44800000      14.06790000
Er       5.42360000       0.39600000       3.55250000
Er       3.51640000       6.99600000       3.55250000
Er       2.44360000       6.20400000      10.65750000
9
Lattice="4.24 0.0 0.0 0.0 6.94 0.0 0.0 -3.469999999999999 6.010216302264006" Properties=species:S:1:pos:R:3 wyckoff_letters="_JSON [\"g\", \"g\", \"g\", \"d\", \"d\", \"f\", \"f\", \"f\", \"a\"]" formula=Dy3Al3Ga2Ir source="Al Dy Ga Ir | 9 |" target="A3B3C2D Al Dy Ga Ir | Al3Dy3GaIr2 | SG 189 P-62m | OX: CN:22;22;23;26 NN:2.67;2.92;2.67;2.67 NP:Al-Al:2.78;Al-Dy:3.25;Al-Ga:2.67;Al-Ir:2.67;Dy-Dy:3.65;Dy-Ga:2.99;Dy-Ir:2.92;Ga-Ga:4.01;Ga-Ir:4.58;Ir-Ir:4.24 WP:g:3;f:3;d:2;a:1 | 4.24 6.94 6.94 120.0 90.0 90.0 | Al g 0.50 0.23 0.00 Al g 0.50 1.00 0.23 Al g 0.50 0.77 0.77 Ga d 0.50 0.67 0.33 Ga d 0.50 0.33 0.67 Dy f 0.00 0.58 0.00 Dy f 0.00 0.42 0.42 Dy f 0.00 0.00 0.58 Ir a 0.00 0.00 0.00" pbc="T T T"
Al       2.12000000       1.59620000       0.00000000
Al       2.12000000       6.14190000       1.38234975
Al       2.12000000       2.67190000       4.62786655
Ga       2.12000000       3.50470000       1.98337138
Ga       2.12000000      -0.03470000       4.02684492
Dy       0.00000000       4.02520000       0.00000000
Dy       0.00000000       1.45740000       2.52429085
Dy       0.00000000      -2.01260000       3.48592546
Ir       0.00000000       0.00000000       0.00000000
11
Lattice="7.11 0.0 0.0 -3.5334848629059183 6.169812373453081 0.0 1.1920375130692809 2.056372618551459 7.806150025531627" Properties=species:S:1:pos:R:3 wyckoff_letters="_JSON [\"i\", \"j\", \"j\", \"j\", \"j\", \"i\", \"g\", \"g\", \"c\", \"h\", \"h\"]" formula=Rb2Sr(DyS3)2 source="Np Rb S Sr | 11 |" target="A6B2C2D Dy Rb S Sr | Dy2Rb2SrS6 | SG 12 C2/m | OX: CN:22;15;16;17;20 NN:2.78;3.29;2.72;2.78;2.81 NP:Dy-Dy:4.09;Dy-Rb:4.53;Dy-S:2.78;Dy-Sr:4.13;Rb-Rb:4.08;Rb-S:3.23;Rb-Sr:4.54;S-S:3.63;S-Sr:2.81 WP:h:2;g:2;i:2;j:4;c:1 | 7.11 7.11 8.16 81.6 81.6 119.8 | S i 0.73 0.73 0.31 S j 0.40 0.06 0.31 S j 0.06 0.40 0.31 S j 0.94 0.60 0.69 S j 0.60 0.94 0.69 S i 0.27 0.27 0.69 Rb g 0.83 0.17 0.00 Rb g 0.17 0.83 0.00 Sr c 0.00 0.00 0.50 Dy h 0.67 0.33 0.50 Dy h 0.33 0.67 0.50" pbc="T T T"
S        2.98038768       5.14143854       2.41990651
S        3.00152254       1.00766425       2.41990651
S       -0.61726232       3.10540046       2.41990651
S        5.38581497       5.12078453       5.38624352
S        1.76703011       7.21852074       5.38624352
S        1.78816497       3.08474645       5.38624352
Rb       5.30060757       1.04886810       0.00000000
Rb      -1.72409244       5.12094427       0.00000000
Sr       0.59601876       1.02818631       3.90307501
Dy       4.19366875       3.06422439       3.90307501
Dy       0.57488390       5.16196060       3.90307501
36
Lattice="5.35 0.0 0.0 0.0 7.55 0.0 0.0 0.0 11.09" Properties=species:S:1:pos:R:3 wyckoff_letters="_JSON [\"a\", \"a\", \"a\", \"a\", \"a\", \"a\", \"a\", \"a\", \"a\", \"a\", \"a\", \"a\", \"a\", \"a\", \"a\", \"a\", \"a\", \"a\", \"a\", \"a\", \"a\", \"a\", \"a\", \"a\", \"a\", \"a\", \"a\", \"a\", \"a\", \"a\", \"a\", \"a\", \"a\", \"a\", \"a\", \"a\"]" formula=SmTaTiO6 source="O Sm Ta Ti | 36 |" target="A6BCD O Sm Ta Ti | Sm4Ta4Ti4O24 | SG 33 Pna2_1 | OX:-2;+3;+5;+4 CN:39;41;44;40 NN:1.90;2.33;1.81;1.79 NP:O-O:2.65;O-Sm:2.33;O-Ta:1.81;O-Ti:1.79;Sm-Sm:3.94;Sm-Ta:3.47;Sm-Ti:3.49;Ta-Ta:4.92;Ta-Ti:3.19;Ti-Ti:4.90 WP:a:24;a:4;a:4;a:4 | 5.35 7.55 11.09 90.0 90.0 90.0 | O a 0.77 0.96 0.03 O a 0.77 0.54 0.03 O a 0.16 0.75 0.12 O a 0.94 0.25 0.14 O a 0.38 0.07 0.21 O a 0.38 0.43 0.21 O a 0.88 0.93 0.29 O a 0.88 0.57 0.29 O a 0.44 0.75 0.36 O a 0.66 0.25 0.38 O a 0.27 0.04 0.47 O a 0.27 0.46 0.47 O a 0.73 0.96 0.53 O a 0.73 0.54 0.53 O a 0.34 0.75 0.62 O a 0.56 0.25 0.64 O a 0.12 0.07 0.71 O a 0.12 0.43 0.71 O a 0.62 0.93 0.79 O a 0.62 0.57 0.79 O a 0.06 0.75 0.86 O a 0.84 0.25 0.88 O a 0.23 0.04 0.97 O a 0.23 0.46 0.97 Ti a 0.04 0.99 0.14 Ti a 0.54 0.49 0.36 Ti a 0.46 0.99 0.64 Ti a 0.96 0.49 0.86 Sm a 0.54 0.25 0.05 Sm a 0.04 0.75 0.45 Sm a 0.96 0.25 0.55 Sm a 0.46 0.75 0.95 Ta a 0.04 0.51 0.14 Ta a 0.54 0.01 0.36 Ta a 0.46 0.51 0.64 Ta a 0.96 0.01 0.86" pbc="T T T"
O        4.11950000       7.24800000       0.33270000
O        4.11950000       4.07700000       0.33270000
O        0.85600000       5.66250000       1.33080000
O        5.02900000       1.88750000       1.55260000
O        2.03300000       0.52850000       2.32890000
O        2.03300000       3.24650000       2.32890000
O        4.70800000       7.02150000       3.21610000
O        4.70800000       4.30350000       3.21610000
O        2.35400000       5.66250000       3.99240000
O        3.53100000       1.88750000       4.21420000
O        1.44450000       0.30200000       5.21230000
O        1.44450000       3.47300000       5.21230000
O        3.90550000       7.24800000       5.87770000
O        3.90550000       4.07700000       5.87770000
O        1.81900000       5.66250000       6.87580000
O        2.99600000       1.88750000       7.09760000
O        0.64200000       0.52850000       7.87390000
O        0.64200000       3.24650000       7.87390000
O        3.31700000       7.02150000       8.76110000
O        3.31700000       4.30350000       8.76110000
O        0.32100000       5.66250000       9.53740000
O        4.49400000       1.88750000       9.75920000
O        1.23050000       0.30200000      10.75730000
O        1.23050000       3.47300000      10.75730000
Ti       0.21400000       7.47450000       1.55260000
Ti       2.88900000       3.69950000       3.99240000
Ti       2.46100000       7.47450000       7.09760000
Ti       5.13600000       3.69950000       9.53740000
Sm       2.88900000       1.88750000       0.55450000
Sm       0.21400000       5.66250000       4.99050000
Sm       5.13600000       1.88750000       6.09950000
Sm       2.46100000       5.66250000      10.53550000
Ta       0.21400000       3.85050000       1.55260000
Ta       2.88900000       0.07550000       3.99240000
Ta       2.46100000       3.85050000       7.09760000
Ta       5.13600000       0.07550000       9.53740000
22
Lattice="12.2 0.0 0.0 11.056955001847129 5.155942793236533 0.0 11.056955001847129 2.4512679089926666 4.5359708691161655" Properties=species:S:1:pos:R:3 wyckoff_letters="_JSON [\"c\", \"c\", \"c\", \"c\", \"f\", \"f\", \"f\", \"f\", \"f\", \"f\", \"f\", \"f\", \"f\", \"f\", \"f\", \"f\", \"c\", \"c\", \"c\", \"c\", \"a\", \"b\"]" formula=NaSrTm(BO3)2 source="B Na O Sr Tm | 22 |" target="A6B2CDE B Na O Sr Tm | Na2Sr2Tm2B4O12 | SG 148 R-3 | OX:+3;+1;-2;+2;+3;+3 CN:32;38;38;38;32;32 NN:1.38;2.27;1.39;2.63;2.24;2.21 NP:B-B:2.99;B-Na:3.03;B-O:1.38;B-Sr:3.03;B-Tm:3.37;Na-Na:4.59;Na-O:2.27;Na-Sr:3.43;Na-Tm:3.61;O-O:2.39;O-Sr:2.63;O-Tm:2.21;Sr-Tm:3.49 WP:c:4;c:2;f:12;c:2;a:1;b:1 | 12.20 12.20 12.20 25.0 25.0 25.0 | B c 0.20 0.20 0.20 B c 0.29 0.29 0.29 B c 0.71 0.71 0.71 B c 0.80 0.80 0.80 O f 0.60 0.19 0.10 O f 0.67 0.61 0.10 O f 0.10 0.60 0.19 O f 0.39 0.90 0.33 O f 0.90 0.33 0.39 O f 0.81 0.90 0.40 O f 0.19 0.10 0.60 O f 0.10 0.67 0.61 O f 0.61 0.10 0.67 O f 0.90 0.40 0.81 O f 0.33 0.39 0.90 O f 0.40 0.81 0.90 Na c 0.38 0.38 0.38 Na c 0.62 0.62 0.62 Sr c 0.10 0.10 0.10 Sr c 0.90 0.90 0.90 Tm a 0.00 0.00 0.00 Tm b 0.50 0.50 0.50" pbc="T T T"
B        6.86278200       1.52144214       0.90719417
B        9.95103390       2.20609110       1.31543155
B       24.36287610       5.40111960       3.22053932
B       27.45112800       6.08576856       3.62877670
O       10.52651695       1.22475592       0.45359709
O       16.02443805       3.39025189       0.45359709
O        9.95499445       3.55930658       0.86183447
O       18.35805465       5.44926692       1.49687039
O       18.94100760       2.65745561       1.76902864
O       24.25604150       5.62085568       1.81438835
O       10.05786850       1.98635502       2.72158252
O       15.37290240       4.94975510       2.76694223
O       15.95585535       2.15794378       3.03910048
O       24.35891555       4.04790412       3.67413640
O       18.28947195       4.21695881       4.08237378
O       23.78739305       6.38245478       4.08237378
Na      13.03928580       2.89074007       1.72366893
Na      21.27462420       4.71647064       2.81230194
Sr       3.43139100       0.76072107       0.45359709
Sr      30.88251900       6.84648963       4.08237378
Tm       0.00000000       0.00000000       0.00000000
Tm      17.15695500       3.80360535       2.26798543
76
Lattice="10.67 0.0 0.0 0.0 10.67 0.0 0.0 0.0 10.67" Properties=species:S:1:pos:R:3 wyckoff_letters="_JSON [\"b\", \"b\", \"b\", \"b\", \"b\", \"b\", \"b\", \"b\", \"b\", \"b\", \"b\", \"b\", \"b\", \"b\", \"b\", \"b\", \"b\", \"b\", \"b\", \"b\", \"b\", \"b\", \"b\", \"b\", \"b\", \"b\", \"b\", \"b\", \"b\", \"b\", \"b\", \"b\", \"b\", \"b\", \"b\", \"b\", \"b\", \"b\", \"b\", \"b\", \"b\", \"b\", \"b\", \"b\", \"b\", \"b\", \"b\", \"b\", \"b\", \"b\", \"b\", \"b\", \"b\", \"b\", \"b\", \"b\", \"b\", \"b\", \"b\", \"b\", \"a\", \"a\", \"a\", \"a\", \"a\", \"a\", \"a\", \"a\", \"a\", \"a\", \"a\", \"a\", \"a\", \"a\", \"a\", \"a\"]" formula=Rb2SmZr(PO4)3 source="O P Rb Sm Zr | 76 |" target="A12B3C2DE O P Rb Sm Zr | Rb8Sm4Zr4O48P12 | SG 198 P2_13 | OX:-2;+5;+1;+3;+4 CN:32;35;32;39;34 NN:1.55;1.53;3.05;2.31;2.08 NP:O-O:2.50;O-P:1.53;O-Rb:3.04;O-Sm:2.31;O-Zr:2.08;P-P:4.48;P-Rb:3.58;P-Sm:3.66;P-Zr:3.47;Rb-Rb:4.03;Rb-Sm:4.01;Rb-Zr:3.99 WP:b:48;b:12;a:8;a:4;a:4 | 10.67 10.67 10.67 90.0 90.0 90.0 | O b 0.43 0.23 0.02 O b 0.44 0.84 0.02 O b 0.72 0.75 0.05 O b 0.16 0.52 0.06 O b 0.77 0.52 0.07 O b 0.64 0.26 0.10 O b 0.24 0.90 0.14 O b 0.52 0.06 0.16 O b 0.75 0.95 0.22 O b 0.02 0.43 0.23 O b 0.90 0.14 0.24 O b 0.45 0.28 0.25 O b 0.55 0.78 0.25 O b 0.10 0.64 0.26 O b 0.98 0.93 0.27 O b 0.25 0.45 0.28 O b 0.48 0.56 0.34 O b 0.76 0.40 0.36 O b 0.36 0.76 0.40 O b 0.23 0.02 0.43 O b 0.84 0.02 0.44 O b 0.28 0.25 0.45 O b 0.56 0.34 0.48 O b 0.57 0.73 0.48 O b 0.07 0.77 0.52 O b 0.06 0.16 0.52 O b 0.78 0.25 0.55 O b 0.34 0.48 0.56 O b 0.73 0.48 0.57 O b 0.86 0.74 0.60 O b 0.26 0.10 0.64 O b 0.98 0.94 0.66 O b 0.75 0.05 0.72 O b 0.48 0.57 0.73 O b 0.60 0.86 0.74 O b 0.05 0.72 0.75 O b 0.95 0.22 0.75 O b 0.40 0.36 0.76 O b 0.52 0.07 0.77 O b 0.25 0.55 0.78 O b 0.02 0.44 0.84 O b 0.74 0.60 0.86 O b 0.14 0.24 0.90 O b 0.27 0.98 0.93 O b 0.66 0.98 0.94 O b 0.22 0.75 0.95 O b 0.94 0.66 0.98 O b 0.93 0.27 0.98 P b 0.29 0.87 0.01 P b 0.51 0.21 0.13 P b 0.13 0.51 0.21 P b 0.87 0.01 0.29 P b 0.49 0.71 0.37 P b 0.71 0.37 0.49 P b 0.21 0.13 0.51 P b 0.99 0.79 0.63 P b 0.37 0.49 0.71 P b 0.63 0.99 0.79 P b 0.01 0.29 0.87 P b 0.79 0.63 0.99 Rb a 0.46 0.54 0.04 Rb a 0.18 0.18 0.18 Rb a 0.82 0.68 0.32 Rb a 0.54 0.04 0.46 Rb a 0.04 0.46 0.54 Rb a 0.32 0.82 0.68 Rb a 0.68 0.32 0.82 Rb a 0.96 0.96 0.96 Zr a 0.61 0.89 0.11 Zr a 0.39 0.39 0.39 Zr a 0.89 0.11 0.61 Zr a 0.11 0.61 0.89 Sm a 0.83 0.33 0.17 Sm a 0.17 0.83 0.33 Sm a 0.67 0.67 0.67 Sm a 0.33 0.17 0.83" pbc="T T T"
O        4.58810000       2.45410000       0.21340000
O        4.69480000       8.96280000       0.21340000
O        7.68240000       8.00250000       0.53350000
O        1.70720000       5.54840000       0.64020000
O        8.21590000       5.54840000       0.74690000
O        6.82880000       2.77420000       1.06700000
O        2.56080000       9.60300000       1.49380000
O        5.54840000       0.64020000       1.70720000
O        8.00250000      10.13650000       2.34740000
O        0.21340000       4.58810000       2.45410000
O        9.60300000       1.49380000       2.56080000
O        4.80150000       2.98760000       2.66750000
O        5.86850000       8.32260000       2.66750000
O        1.06700000       6.82880000       2.77420000
O       10.45660000       9.92310000       2.88090000
O        2.66750000       4.80150000       2.98760000
O        5.12160000       5.97520000       3.62780000
O        8.10920000       4.26800000       3.84120000
O        3.84120000       8.10920000       4.26800000
O        2.45410000       0.21340000       4.58810000
O        8.96280000       0.21340000       4.69480000
O        2.98760000       2.66750000       4.80150000
O        5.97520000       3.62780000       5.12160000
O        6.08190000       7.78910000       5.12160000
O        0.74690000       8.21590000       5.54840000
O        0.64020000       1.70720000       5.54840000
O        8.32260000       2.66750000       5.86850000
O        3.62780000       5.12160000       5.97520000
O        7.78910000       5.12160000       6.08190000
O        9.17620000       7.89580000       6.40200000
O        2.77420000       1.06700000       6.82880000
O       10.45660000      10.02980000       7.04220000
O        8.00250000       0.53350000       7.68240000
O        5.12160000       6.08190000       7.78910000
O        6.40200000       9.17620000       7.89580000
O        0.53350000       7.68240000       8.00250000
O       10.13650000       2.34740000       8.00250000
O        4.26800000       3.84120000       8.10920000
O        5.54840000       0.74690000       8.21590000
O        2.66750000       5.86850000       8.32260000
O        0.21340000       4.69480000       8.96280000
O        7.89580000       6.40200000       9.17620000
O        1.49380000       2.56080000       9.60300000
O        2.88090000      10.45660000       9.92310000
O        7.04220000      10.45660000      10.02980000
O        2.34740000       8.00250000      10.13650000
O       10.02980000       7.04220000      10.45660000
O        9.92310000       2.88090000      10.45660000
P        3.09430000       9.28290000       0.10670000
P        5.44170000       2.24070000       1.38710000
P        1.38710000       5.44170000       2.24070000
P        9.28290000       0.10670000       3.09430000
P        5.22830000       7.57570000       3.94790000
P        7.57570000       3.94790000       5.22830000
P        2.24070000       1.38710000       5.44170000
P       10.56330000       8.42930000       6.72210000
P        3.94790000       5.22830000       7.57570000
P        6.72210000      10.56330000       8.42930000
P        0.10670000       3.09430000       9.28290000
P        8.42930000       6.72210000      10.56330000
Rb       4.90820000       5.76180000       0.42680000
Rb       1.92060000       1.92060000       1.92060000
Rb       8.74940000       7.25560000       3.41440000
Rb       5.76180000       0.42680000       4.90820000
Rb       0.42680000       4.90820000       5.76180000
Rb       3.41440000       8.74940000       7.25560000
Rb       7.25560000       3.41440000       8.74940000
Rb      10.24320000      10.24320000      10.24320000
Zr       6.50870000       9.49630000       1.17370000
Zr       4.16130000       4.16130000       4.16130000
Zr       9.49630000       1.17370000       6.50870000
Zr       1.17370000       6.50870000       9.49630000
Sm       8.85610000       3.52110000       1.81390000
Sm       1.81390000       8.85610000       3.52110000
Sm       7.14890000       7.14890000       7.14890000
Sm       3.52110000       1.81390000       8.85610000
58
Lattice="13.29 0.0 0.0 -4.458151361980885 12.519943547543173 0.0 -4.414421442734419 -6.257841310841926 10.861694409908925" Properties=species:S:1:pos:R:3 wyckoff_letters="_JSON [\"e\", \"e\", \"e\", \"e\", \"e\", \"e\", \"e\", \"e\", \"e\", \"e\", \"e\", \"e\", \"e\", \"e\", \"e\", \"e\", \"e\", \"e\", \"e\", \"e\", \"e\", \"e\", \"e\", \"e\", \"e\", \"e\", \"e\", \"e\", \"e\", \"e\", \"e\", \"e\", \"d\", \"d\", \"d\", \"d\", \"e\", \"e\", \"e\", \"e\", \"e\", \"e\", \"e\", \"e\", \"c\", \"c\", \"d\", \"d\", \"d\", \"d\", \"c\", \"c\", \"d\", \"d\", \"d\", \"d\", \"a\", \"a\"]" formula=Ba6Ag2Sn4HgS16 source="Ag Ba Hg S Sn | 58 |" target="A16B6C4D2E Ag Ba Hg S Sn | Ag4Ba12Hg2Sn8S32 | SG 122 I-42d | OX:+1;+2;+2;+2;-2;+4 CN:16;15;15;16;18;17 NN:2.61;3.16;3.19;2.73;2.43;2.40 NP:Ag-Ba:4.20;Ag-S:2.61;Ag-Sn:4.04;Ba-Ba:4.23;Ba-Hg:4.19;Ba-S:3.16;Ba-Sn:4.10;Hg-S:2.73;Hg-Sn:4.11;S-S:3.76;S-Sn:2.40 WP:d:4;c:4;d:8;a:2;e:32;e:8 | 13.29 13.29 13.29 109.4 109.4 109.6 | S e 0.66 0.90 0.02 S e 0.20 0.99 0.06 S e 0.18 0.49 0.08 S e 0.68 0.45 0.10 S e 0.85 0.28 0.21 S e 0.01 0.08 0.22 S e 0.55 0.65 0.23 S e 0.37 0.85 0.25 S e 0.87 0.85 0.25 S e 0.57 0.17 0.27 S e 0.06 0.61 0.28 S e 0.40 0.32 0.29 S e 0.35 0.12 0.40 S e 0.89 0.66 0.42 S e 0.85 0.10 0.44 S e 0.39 0.64 0.48 S e 0.15 0.41 0.52 S e 0.24 0.95 0.56 S e 0.74 0.43 0.58 S e 0.70 0.93 0.60 S e 0.03 0.60 0.71 S e 0.33 0.76 0.72 S e 0.90 0.30 0.73 S e 0.60 0.12 0.75 S e 0.10 0.12 0.75 S e 0.42 0.32 0.77 S e 0.86 0.81 0.78 S e 0.57 0.65 0.79 S e 0.37 0.10 0.90 S e 0.41 0.64 0.92 S e 0.85 0.10 0.94 S e 0.89 0.64 0.98 Ag d 0.63 0.25 0.13 Ag d 0.75 0.88 0.37 Ag d 0.50 0.37 0.63 Ag d 0.12 0.50 0.87 Sn e 0.83 0.08 0.21 Sn e 0.37 0.67 0.24 Sn e 0.38 0.17 0.26 Sn e 0.87 0.63 0.29 Sn e 0.33 0.58 0.71 Sn e 0.92 0.12 0.74 Sn e 0.42 0.13 0.76 Sn e 0.88 0.62 0.79 Ba c 0.36 0.36 0.00 Ba c 0.64 0.64 0.00 Ba d 0.39 0.88 0.02 Ba d 0.12 0.86 0.23 Ba d 0.14 0.37 0.27 Ba d 0.63 0.61 0.48 Ba c 0.61 0.11 0.50 Ba c 0.89 0.39 0.50 Ba d 0.13 0.14 0.52 Ba d 0.11 0.88 0.73 Ba d 0.63 0.89 0.77 Ba d 0.86 0.37 0.98 Hg a 0.00 0.00 0.00 Hg a 0.25 0.75 0.50" pbc="T T T"
S        4.67077535      11.14279237       0.21723389
S       -2.02043513      12.01927363       0.65170166
S       -0.14544788       5.63414503       0.86893555
S        6.58958974       5.00819047       1.08616944
S        9.12118912       2.19143752       2.28095583
S       -1.19492483      -0.37512960       2.38957277
S        3.39638468       6.69865980       2.49818971
S        0.02426598       9.07749169       2.71542360
S        6.66926598       9.07749169       2.71542360
S        5.62552048       0.43877325       2.93265749
S       -3.15811033       5.88497000       3.04127443
S        2.60920935       2.19160796       3.14989138
S        2.35075326      -1.00074330       4.34467776
S        7.03166310       5.63486939       4.56191165
S        8.90833943      -1.50145582       4.77914554
S        0.21096084       5.00900004       5.21361332
S       -2.12984121       1.87909937       5.64808109
S       -3.51771980       8.38955524       6.08254887
S        5.35723048       1.75402777       6.29978276
S        2.50826637       7.88884271       6.51701665
S       -5.41043004       3.06889880       7.71180303
S       -2.18087847       5.00951135       7.82041998
S        7.40102694      -0.81224109       7.92903692
S        4.12820575      -3.19098776       8.14627081
S       -2.51679425      -3.19098776       8.14627081
S        0.75608705      -0.81215587       8.36350470
S        4.37504867       5.26003805       8.47212164
S        1.19010867       3.19426867       8.58073858
S        0.49850557      -4.38006283       9.77552497
S       -1.46558460       2.25554986       9.99275886
S        6.70112871      -4.63037648      10.20999275
S        4.64875011       1.88007939      10.64446052
Ag       6.68428737       2.31646652       1.41202027
Ag       4.41099087       8.70214904       4.01882693
Ag       2.21439849       0.68993909       6.84286748
Ag      -4.47482234       0.81564983       9.44967414
Sn       9.74701939      -0.31255119       2.28095583
Sn       0.87087744       6.88648026       2.60680666
Sn       3.14456469       0.50135166       2.82404055
Sn       7.47348242       6.07279045       3.14989138
Sn      -1.33426701       2.81849993       7.71180303
Sn       8.42514997      -3.12840934       8.03765386
Sn       1.64728003      -3.12836674       8.25488775
Sn       5.44375322       2.81867036       8.58073858
Ba       3.17946551       4.50717968       0.00000000
Ba       5.65238313       8.01276387       0.00000000
Ba       1.17163837      10.89239350       0.21723389
Ba      -3.25452710       9.32784795       2.49818971
Ba      -0.98080979       2.94276196       2.93265749
Ba       3.53430538       4.63340173       5.21361332
Ba       5.40929263      -1.75172687       5.43084720
Ba       7.88221025       1.75385733       5.43084720
Ba      -1.19194034      -1.50128538       5.64808109
Ba      -5.68380085       6.44932616       7.92903692
Ba       1.00584078       6.32421195       8.36350470
Ba       5.45375098      -1.50030537      10.64446052
Hg       0.00000000       0.00000000       0.00000000
Hg      -2.22832424       6.26103701       5.43084720
16
Lattice="4.49 0.0 0.0 0.0 4.49 0.0 0.0 0.0 17.58" Properties=species:S:1:pos:R:3 wyckoff_letters="_JSON [\"a\", \"c\", \"i\", \"i\", \"h\", \"i\", \"i\", \"d\", \"i\", \"i\", \"h\", \"i\", \"i\", \"g\", \"b\", \"g\"]" formula=Mg(Sc4In)3 source="In Mg Sc | 16 |" target="A12B3C In Mg Sc | In3MgSc12 | SG 123 P4/mmm | OX: CN:18;18;18;18;18;18;18 NN:3.20;3.19;3.27;3.16;3.15;3.15;3.18 NP:In-In:4.49;In-Mg:3.20;In-Sc:3.19;Mg-Mg:3.16;Mg-Sc:3.15;Sc-Sc:3.18 WP:b:1;g:2;a:1;c:1;d:1;h:2;i:8 | 4.49 4.49 17.58 90.0 90.0 90.0 | Mg a 0.00 0.00 0.00 Sc c 0.50 0.50 0.00 Sc i 0.50 0.00 0.13 Sc i 0.00 0.50 0.13 Sc h 0.50 0.50 0.25 Sc i 0.50 0.00 0.38 Sc i 0.00 0.50 0.38 Sc d 0.50 0.50 0.50 Sc i 0.50 0.00 0.62 Sc i 0.00 0.50 0.62 Sc h 0.50 0.50 0.75 Sc i 0.50 0.00 0.87 Sc i 0.00 0.50 0.87 In g 0.00 0.00 0.25 In b 0.00 0.00 0.50 In g 0.00 0.00 0.75" pbc="T T T"
Mg       0.00000000       0.00000000       0.00000000
Sc       2.24500000       2.24500000       0.00000000
Sc       2.24500000       0.00000000       2.28540000
Sc       0.00000000       2.24500000       2.28540000
Sc       2.24500000       2.24500000       4.39500000
Sc       2.24500000       0.00000000       6.68040000
Sc       0.00000000       2.24500000       6.68040000
Sc       2.24500000       2.24500000       8.79000000
Sc       2.24500000       0.00000000      10.89960000
Sc       0.00000000       2.24500000      10.89960000
Sc       2.24500000       2.24500000      13.18500000
Sc       2.24500000       0.00000000      15.29460000
Sc       0.00000000       2.24500000      15.29460000
In       0.00000000       0.00000000       4.39500000
In       0.00000000       0.00000000       8.79000000
In       0.00000000       0.00000000      13.18500000
8
Lattice="5.33 0.0 0.0 2.6650000000000005 4.615915402171058 0.0 2.6706538037669176 1.5419026925171277 8.710209202265679" Properties=species:S:1:pos:R:3 wyckoff_letters="_JSON [\"a\", \"b\", \"c\", \"c\", \"c\", \"c\", \"c\", \"c\"]" formula=Nd4MgZnIn2 source="In Mg Nd Zn | 8 |" target="A4B2CD In Mg Nd Zn | In2MgNd4Zn | SG 166 R-3m | OX: CN:14;14;14;14 NN:3.24;3.38;3.20;3.20 NP:In-Mg:3.75;In-Nd:3.24;In-Zn:3.91;Mg-Nd:3.38;Nd-Nd:3.65;Nd-Zn:3.20 WP:c:2;a:1;c:4;b:1 | 5.33 5.33 9.24 73.2 73.2 60.0 | Mg a 0.00 0.00 0.00 Zn b 0.50 0.50 0.50 In c 0.25 0.25 0.24 In c 0.75 0.75 0.76 Nd c 0.62 0.62 0.14 Nd c 0.87 0.87 0.39 Nd c 0.13 0.13 0.61 Nd c 0.38 0.38 0.86" pbc="T T T"
Mg       0.00000000       0.00000000       0.00000000
Zn       5.33282690       3.07890905       4.35510460
In       2.63970691       1.52403550       2.09045021
In       8.02594689       4.63378260       6.61975899
Nd       5.33079153       3.07773393       1.21942929
Nd       7.99720498       4.61718845       3.39698159
Nd       2.66844882       1.54062964       5.31322761
Nd       5.33486227       3.08008417       7.49077991
19
Lattice="6.76 0.0 0.0 -1.0574969836719619 6.676773182423131 0.0 -1.0574969836719619 -1.2381698844976357 6.560962998420873" Properties=species:S:1:pos:R:3 wyckoff_letters="_JSON [\"f\", \"f\", \"f\", \"f\", \"f\", \"f\", \"f\", \"f\", \"f\", \"f\", \"f\", \"f\", \"a\", \"f\", \"f\", \"f\", \"f\", \"f\", \"f\"]" formula=Eu6TeO12 source="Eu O Te | 19 |" target="A12B6C Eu O Te | Eu6O12Te | SG 148 R-3 | OX:+2;+2;-2;+6 CN:37;39;42 NN:2.34;2.14;1.96;1.96 NP:Eu-Eu:3.70;Eu-O:2.34;Eu-Te:3.65;O-O:2.74;O-Te:1.96 WP:f:6;f:12;a:1 | 6.76 6.76 6.76 99.0 99.0 99.0 | O f 0.93 0.70 0.03 O f 0.30 0.97 0.07 O f 0.59 0.43 0.18 O f 0.97 0.07 0.30 O f 0.57 0.82 0.41 O f 0.18 0.59 0.43 O f 0.82 0.41 0.57 O f 0.43 0.18 0.59 O f 0.03 0.93 0.70 O f 0.41 0.57 0.82 O f 0.70 0.03 0.93 O f 0.07 0.30 0.97 Te a 0.00 0.00 0.00 Eu f 0.31 0.61 0.14 Eu f 0.61 0.14 0.31 Eu f 0.86 0.69 0.39 Eu f 0.14 0.31 0.61 Eu f 0.39 0.86 0.69 Eu f 0.69 0.39 0.86" pbc="T T T"
O        5.51482720       4.63659613       0.19682889
O        0.92820314       6.38979810       0.45926741
O        3.34332684       2.64814189       1.18097334
O        6.16592612       0.09592316       1.96828890
O        2.55247871       4.96730436       2.68999483
O        0.13815308       3.40688313       2.82121409
O        4.50685296       2.03172017       3.73974891
O        2.09252732       0.47129894       3.87096817
O       -1.52092008       5.34268014       4.59267410
O        1.30167919       2.79046141       5.37998966
O        3.71680290      -0.95119480       6.10169559
O       -0.86982117       0.80200717       6.36413411
Te       0.00000000       0.00000000       0.00000000
Eu       1.30247726       3.89948786       0.91853482
Eu       3.64772636       0.55091558       2.03389853
Eu       4.67150326       4.12408724       2.55877557
Eu      -0.02649722       1.31451606       4.00218743
Eu       0.99727968       4.88768772       4.52706447
Eu       3.34252877       1.53911544       5.64242818
17
Lattice="8.0 0.0 0.0 -1.1520706116222552 9.661554393876605 0.0 -2.4576762428703542 -3.262051932661659 8.85332393363357" Properties=species:S:1:pos:R:3 wyckoff_letters="_JSON [\"i\", \"i\", \"i\", \"i\", \"i\", \"i\", \"i\", \"i\", \"i\", \"i\", \"a\", \"i\", \"i\", \"i\", \"i\", \"i\", \"i\"]" formula=La6RuBr10 source="Br La Ru | 17 |" target="A10B6C Br La Ru | La6RuBr10 | SG 2 P-1 | OX:-1;+1;+2 CN:15;10;18 NN:3.05;2.80;2.80 NP:Br-Br:4.00;Br-La:2.91;Br-Ru:4.31;La-La:3.96;La-Ru:2.80 WP:i:10;i:6;a:1 | 8.00 9.73 9.75 107.6 104.6 96.8 | Br i 0.45 0.82 0.08 Br i 0.91 0.63 0.17 Br i 0.36 0.47 0.28 Br i 0.79 0.26 0.35 Br i 0.24 0.08 0.45 Br i 0.76 0.92 0.55 Br i 0.21 0.74 0.65 Br i 0.64 0.53 0.72 Br i 0.09 0.37 0.83 Br i 0.55 0.18 0.92 Ru a 0.00 0.00 0.00 La i 0.98 0.29 0.09 La i 0.37 0.14 0.18 La i 0.88 0.95 0.24 La i 0.12 0.05 0.76 La i 0.63 0.86 0.82 La i 0.02 0.71 0.91" pbc="T T T"
Br       2.45868800       7.66151045       0.70826591
Br       6.13639055       5.53223044       1.50506507
Br       1.65037746       3.62755602       2.47893070
Br       5.16027496       1.37028597       3.09866338
Br       0.72188004      -0.69499902       3.98399577
Br       3.66837310       7.09450148       4.86932816
Br      -0.77002181       5.02921650       5.75466056
Br       2.73987568       2.77194644       6.37439323
Br      -1.74613741       0.86727202       7.34825886
Br       1.93156515      -1.26200799       8.14505802
Ru       0.00000000       0.00000000       0.00000000
La       7.28470866       2.50826610       0.79679915
La       2.35632839       0.76544827       1.59359831
La       5.35569062       8.39558421       2.12479774
La      -0.96543748      -1.99608175       6.72852619
La       2.03392475       5.63405419       7.25972563
La      -2.89445552       3.89123636       8.05652478
64
Lattice="13.93 0.0 0.0 -6.964999999999997 12.063733874717231 0.0 0.0 0.0 9.61" Properties=species:S:1:pos:R:3 wyckoff_letters="_JSON [\"i\", \"i\", \"i\", \"i\", \"i\", \"i\", \"i\", \"i\", \"i\", \"i\", \"i\", \"i\", \"i\", \"i\", \"i\", \"i\", \"i\", \"i\", \"i\", \"i\", \"i\", \"i\", \"i\", \"i\", \"i\", \"i\", \"i\", \"i\", \"i\", \"i\", \"i\", \"i\", \"i\", \"i\", \"i\", \"i\", \"i\", \"i\", \"i\", \"i\", \"i\", \"i\", \"i\", \"i\", \"i\", \"i\", \"i\", \"i\", \"b\", \"b\", \"g\", \"g\", \"g\", \"g\", \"g\", \"g\", \"g\", \"g\", \"g\", \"g\", \"g\", \"g\", \"c\", \"c\"]" formula=Rb3HoIn3B12Se12Br source="B Br Ho In Rb Se | 64 |" target="A12B12C3D3EF B Br Ho In Rb Se | Ho2In6Rb6B24Br2Se24 | SG 182 P6_322 | OX: CN:26;8;24;25;13;24 NN:1.78;3.77;2.90;2.59;3.70;2.02 NP:B-B:1.78;B-Ho:3.62;B-In:3.35;B-Rb:4.88;B-Se:2.01;Br-Br:4.81;Br-Rb:3.77;Ho-In:4.75;Ho-Se:2.90;In-In:4.92;In-Rb:4.57;In-Se:2.59;Rb-Se:3.70;Se-Se:3.58 WP:i:24;b:2;c:2;g:6;g:6;i:24 | 13.93 13.93 9.61 90.0 90.0 120.0 | B i 0.67 0.26 0.11 B i 0.59 0.33 0.11 B i 0.74 0.41 0.11 B i 0.55 0.21 0.22 B i 0.79 0.33 0.22 B i 0.67 0.45 0.22 B i 0.67 0.21 0.28 B i 0.55 0.33 0.28 B i 0.79 0.45 0.28 B i 0.59 0.26 0.39 B i 0.74 0.33 0.39 B i 0.67 0.41 0.39 B i 0.26 0.59 0.61 B i 0.41 0.67 0.61 B i 0.33 0.74 0.61 B i 0.33 0.55 0.72 B i 0.21 0.67 0.72 B i 0.45 0.79 0.72 B i 0.21 0.55 0.78 B i 0.45 0.67 0.78 B i 0.33 0.79 0.78 B i 0.33 0.59 0.89 B i 0.26 0.67 0.89 B i 0.41 0.74 0.89 Se i 0.33 0.51 0.06 Se i 0.17 0.67 0.06 Se i 0.49 0.83 0.06 Se i 0.40 0.08 0.19 Se i 0.92 0.32 0.19 Se i 0.68 0.60 0.19 Se i 0.68 0.08 0.31 Se i 0.40 0.32 0.31 Se i 0.92 0.60 0.31 Se i 0.17 0.51 0.44 Se i 0.49 0.67 0.44 Se i 0.33 0.83 0.44 Se i 0.51 0.17 0.56 Se i 0.83 0.33 0.56 Se i 0.67 0.49 0.56 Se i 0.32 0.40 0.69 Se i 0.08 0.68 0.69 Se i 0.60 0.92 0.69 Se i 0.08 0.40 0.81 Se i 0.60 0.68 0.81 Se i 0.32 0.92 0.81 Se i 0.67 0.17 0.94 Se i 0.51 0.33 0.94 Se i 0.83 0.49 0.94 Br b 0.00 0.00 0.25 Br b 0.00 0.00 0.75 Rb g 0.79 0.00 0.00 Rb g 0.21 0.21 0.00 Rb g 0.00 0.79 0.00 Rb g 1.00 0.21 0.50 Rb g 0.79 0.79 0.50 Rb g 0.21 1.00 0.50 In g 1.00 0.47 0.00 In g 0.53 0.53 0.00 In g 0.47 1.00 0.00 In g 0.53 0.00 0.50 In g 0.47 0.47 0.50 In g 0.00 0.53 0.50 Ho c 0.33 0.67 0.25 Ho c 0.67 0.33 0.75" pbc="T T T"
B        7.52220000       3.13657081       1.05710000
B        5.92025000       3.98103218       1.05710000
B        7.45255000       4.94613089       1.05710000
B        6.19885000       2.53338411       2.11420000
B        8.70625000       3.98103218       2.11420000
B        6.19885000       5.42868024       2.11420000
B        7.87045000       2.53338411       2.69080000
B        5.36305000       3.98103218       2.69080000
B        7.87045000       5.42868024       2.69080000
B        6.40780000       3.13657081       3.74790000
B        8.00975000       3.98103218       3.74790000
B        6.47745000       4.94613089       3.74790000
B       -0.48755000       7.11760299       5.86210000
B        1.04475000       8.08270170       5.86210000
B       -0.55720000       8.92716307       5.86210000
B        0.76615000       6.63505363       6.91920000
B       -1.74125000       8.08270170       6.91920000
B        0.76615000       9.53034976       6.91920000
B       -0.90545000       6.63505363       7.49580000
B        1.60195000       8.08270170       7.49580000
B       -0.90545000       9.53034976       7.49580000
B        0.48755000       7.11760299       8.55290000
B       -1.04475000       8.08270170       8.55290000
B        0.55720000       8.92716307       8.55290000
Se       1.04475000       6.15250428       0.57660000
Se      -2.29845000       8.08270170       0.57660000
Se       1.04475000      10.01289912       0.57660000
Se       5.01480000       0.96509871       1.82590000
Se      10.58680000       3.86039484       1.82590000
Se       5.29340000       7.23824032       1.82590000
Se       8.91520000       0.96509871       2.97910000
Se       3.34320000       3.86039484       2.97910000
Se       8.63660000       7.23824032       2.97910000
Se      -1.18405000       6.15250428       4.22840000
Se       2.15915000       8.08270170       4.22840000
Se      -1.18405000      10.01289912       4.22840000
Se       5.92025000       2.05083476       5.38160000
Se       9.26345000       3.98103218       5.38160000
Se       5.92025000       5.91122960       5.38160000
Se       1.67160000       4.82549355       6.63090000
Se      -3.62180000       8.20333903       6.63090000
Se       1.95020000      11.09863516       6.63090000
Se      -1.67160000       4.82549355       7.78410000
Se       3.62180000       8.20333903       7.78410000
Se      -1.95020000      11.09863516       7.78410000
Se       8.14905000       2.05083476       9.03340000
Se       4.80585000       3.98103218       9.03340000
Se       8.14905000       5.91122960       9.03340000
Br       0.00000000       0.00000000       2.40250000
Br       0.00000000       0.00000000       7.20750000
Rb      11.00470000       0.00000000       0.00000000
Rb       1.46265000       2.53338411       0.00000000
Rb      -5.50235000       9.53034976       0.00000000
Rb      12.46735000       2.53338411       4.80500000
Rb       5.50235000       9.53034976       4.80500000
Rb      -4.03970000      12.06373387       4.80500000
In      10.65645000       5.66995492       0.00000000
In       3.69145000       6.39377895       0.00000000
In      -0.41790000      12.06373387       0.00000000
In       7.38290000       0.00000000       4.80500000
In       3.27355000       5.66995492       4.80500000
In      -3.69145000       6.39377895       4.80500000
Ho      -0.06965000       8.08270170       2.40250000
Ho       7.03465000       3.98103218       7.20750000
28
Lattice="8.58 0.0 0.0 4.290000000000001 7.430497964470483 0.0 4.290000000000001 2.476832654823495 7.005540664359889" Properties=species:S:1:pos:R:3 wyckoff_letters="_JSON [\"c\", \"c\", \"c\", \"c\", \"e\", \"e\", \"e\", \"e\", \"e\", \"e\", \"e\", \"e\", \"f\", \"f\", \"f\", \"f\", \"f\", \"f\", \"f\", \"f\", \"f\", \"f\", \"f\", \"f\", \"d\", \"d\", \"d\", \"d\"]" formula=Nb3Ga2PtC source="C Ga Nb Pt | 28 |" target="A3B2CD C Ga Nb Pt | Ga8Nb12Pt4C4 | SG 227 Fd-3m | OX: CN:36;33;38;37 NN:2.18;2.64;2.63;2.18 NP:C-C:4.29;C-Ga:3.54;C-Nb:2.18;C-Pt:4.29;Ga-Ga:2.92;Ga-Nb:2.82;Ga-Pt:2.64;Nb-Nb:3.07;Nb-Pt:3.06;Pt-Pt:4.29 WP:c:4;e:8;f:12;d:4 | 8.58 8.58 8.58 60.0 60.0 60.0 | C c 0.62 0.62 0.13 C c 0.62 0.13 0.62 C c 0.13 0.62 0.62 C c 0.62 0.62 0.62 Ga e 0.91 0.91 0.26 Ga e 0.99 0.34 0.34 Ga e 0.34 0.99 0.34 Ga e 0.34 0.34 0.34 Ga e 0.91 0.26 0.91 Ga e 0.26 0.91 0.91 Ga e 0.91 0.91 0.91 Ga e 0.34 0.34 0.99 Nb f 0.69 0.31 0.31 Nb f 0.31 0.69 0.31 Nb f 0.69 0.69 0.31 Nb f 0.94 0.94 0.56 Nb f 0.94 0.56 0.56 Nb f 0.56 0.94 0.56 Nb f 0.69 0.31 0.69 Nb f 0.31 0.69 0.69 Nb f 0.31 0.31 0.69 Nb f 0.56 0.56 0.94 Nb f 0.94 0.56 0.94 Nb f 0.56 0.94 0.94 Pt d 0.12 0.12 0.12 Pt d 0.63 0.12 0.12 Pt d 0.12 0.63 0.12 Pt d 0.12 0.12 0.63" pbc="T T T"
C        8.53710000       4.92889698       0.91072029
C        8.53710000       2.50160098       4.34343521
C        6.43500000       6.14254498       4.34343521
C       10.63920000       6.14254498       4.34343521
Ga      12.82710000       7.40572964       1.82144057
Ga      11.41140000       3.36849241       2.38188383
Ga       8.62290000       8.19831609       2.38188383
Ga       5.83440000       3.36849241       2.38188383
Ga      12.82710000       4.18584719       6.37504200
Ga      10.03860000       9.01567086       6.37504200
Ga      15.61560000       9.01567086       6.37504200
Ga       8.62290000       4.97843364       6.93548526
Nb       8.58000000       3.07127249       2.17171761
Nb       6.94980000       5.89486172       2.17171761
Nb      10.21020000       5.89486172       2.17171761
Nb      14.50020000       8.37169437       3.92310277
Nb      12.87000000       5.54810515       3.92310277
Nb      11.23980000       8.37169437       3.92310277
Nb      10.21020000       4.01246890       4.83382306
Nb       8.58000000       6.83605813       4.83382306
Nb       6.94980000       4.01246890       4.83382306
Nb      11.23980000       6.48930156       6.58520822
Nb      14.50020000       6.48930156       6.58520822
Nb      12.87000000       9.31289078       6.58520822
Pt       2.05920000       1.18887967       0.84066488
Pt       6.43500000       1.18887967       0.84066488
Pt       4.24710000       4.97843364       0.84066488
Pt       4.24710000       2.45206433       4.41349062
36
Lattice="8.66 0.0 0.0 7.360070721266243 4.563437189001228 0.0 0.26839115616600323 0.0764532319836205 11.826707956596" Properties=species:S:1:pos:R:3 wyckoff_letters="_JSON [\"f\", \"f\", \"f\", \"f\", \"f\", \"f\", \"f\", \"f\", \"f\", \"f\", \"f\", \"f\", \"f\", \"f\", \"f\", \"f\", \"f\", \"f\", \"f\", \"f\", \"f\", \"f\", \"f\", \"f\", \"f\", \"e\", \"f\", \"f\", \"e\", \"f\", \"c\", \"f\", \"f\", \"c\", \"f\", \"f\"]" formula=Na2Mn3Si3O10 source="Mn Na O Si | 36 |" target="A10B3C3D2 Mn Na O Si | Mn6Na4O20Si6 | SG 15 C2/c | OX:+2;+2;+1;-2;+4;+4 CN:42;40;38;40;38;37 NN:2.19;2.19;2.33;1.63;1.64;1.62 NP:Mn-Mn:3.38;Mn-Na:3.23;Mn-O:2.19;Mn-Si:2.92;Na-Na:3.66;Na-O:2.33;Na-Si:2.99;O-O:2.55;O-Si:1.62;Si-Si:2.97 WP:c:2;f:4;f:4;f:20;e:2;f:4 | 8.66 8.66 11.83 88.7 88.7 31.8 | O f 0.18 0.79 0.04 O f 0.24 0.30 0.10 O f 0.55 0.71 0.11 O f 0.65 0.46 0.19 O f 0.84 0.95 0.19 O f 0.05 0.16 0.31 O f 0.54 0.35 0.31 O f 0.29 0.45 0.39 O f 0.70 0.76 0.40 O f 0.21 0.82 0.46 O f 0.79 0.18 0.54 O f 0.30 0.24 0.60 O f 0.71 0.55 0.61 O f 0.46 0.65 0.69 O f 0.95 0.84 0.69 O f 0.16 0.05 0.81 O f 0.35 0.54 0.81 O f 0.45 0.29 0.89 O f 0.76 0.70 0.90 O f 0.82 0.21 0.96 Na f 0.08 0.57 0.14 Na f 0.43 0.92 0.36 Na f 0.57 0.08 0.64 Na f 0.92 0.43 0.86 Si f 0.31 0.84 0.11 Si e 0.68 0.32 0.25 Si f 0.16 0.69 0.39 Si f 0.84 0.31 0.61 Si e 0.32 0.68 0.75 Si f 0.69 0.16 0.89 Mn c 0.50 0.00 0.00 Mn f 0.88 0.76 0.04 Mn f 0.24 0.12 0.46 Mn c 0.00 0.50 0.50 Mn f 0.76 0.88 0.54 Mn f 0.12 0.24 0.96" pbc="T T T"
O        7.38399152       3.60817351       0.47306832
O        4.31326033       1.37667648       1.18267080
O       10.01817324       3.24845026       1.30093788
O        9.06562685       2.11370722       2.24707451
O       14.31746150       4.34979144       2.24707451
O        1.69381257       0.75385045       3.66627947
O        7.33562601       1.62090352       3.66627947
O        5.92810438       2.08336350       4.61241610
O       11.76301021       3.49879356       4.73068318
O        7.97731792       3.77718698       5.44028566
O        8.31114395       0.86270344       6.38642230
O        4.52545167       1.14109686       7.09602477
O       10.36035750       2.55652693       7.21429185
O        8.95283587       3.01898690       8.16042849
O       14.59464930       3.88603997       8.16042849
O        1.97100037       0.29009898       9.57963344
O        7.22283503       2.52618320       9.57963344
O        6.27028864       1.39144016      10.52577008
O       11.97520155       3.26321394      10.64403716
O        8.90447036       1.03171691      11.35363964
Na       4.92561507       2.61186265       1.65573911
Na      10.59168588       4.22588538       4.25761486
Na       5.69677600       0.41400504       7.56909309
Na      11.36284680       2.02802777      10.17096884
Si       8.89658243       3.84169709       1.30093788
Si       8.31112042       1.47941321       2.95667699
Si       6.56872135       3.17858842       4.61241610
Si       9.71974053       1.46130200       7.21429185
Si       7.97734146       3.16047721       8.87003097
Si       7.39187944       0.79819333      10.52577008
Mn       4.33000000       0.00000000       0.00000000
Mn      13.22518939       3.47127039       0.47306832
Mn       3.08506842       0.58278095       5.44028566
Mn       3.81423094       2.31994521       5.91335398
Mn      13.20339346       4.05710947       6.38642230
Mn       3.06327248       1.16862003      11.35363964
12
Lattice="4.48 0.0 0.0 -2.2312261494328425 7.48449930657269 0.0 0.0 0.0 11.67" Properties=species:S:1:pos:R:3 wyckoff_letters="_JSON [\"f\", \"c\", \"f\", \"f\", \"c\", \"f\", \"c\", \"c\", \"c\", \"c\", \"b\", \"b\"]" formula=CeTlTe3Au source="Au Ce Te Tl | 12 |" target="A3BCD Au Ce Te Tl | Au2Ce2Tl2Te6 | SG 63 Cmcm | OX: CN:15;16;14;19;18 NN:2.79;3.14;2.97;2.82;3.70 NP:Au-Au:4.48;Au-Ce:3.75;Au-Te:2.79;Au-Tl:3.91;Ce-Ce:4.48;Ce-Te:3.14;Ce-Tl:4.65;Te-Te:4.16;Te-Tl:3.70;Tl-Tl:4.48 WP:c:2;c:2;c:2;f:4;b:2 | 4.48 7.81 11.67 90.0 90.0 106.6 | Te f 0.64 0.28 0.05 Te c 0.93 0.86 0.25 Te f 0.64 0.28 0.45 Te f 0.36 0.72 0.55 Te c 0.07 0.14 0.75 Te f 0.36 0.72 0.95 Ce c 0.24 0.49 0.25 Ce c 0.76 0.51 0.75 Au c 0.53 0.07 0.25 Au c 0.47 0.93 0.75 Tl b 1.00 1.00 0.00 Tl b 1.00 1.00 0.50" pbc="T T T"
Te       2.24245668       2.09565981       0.58350000
Te       2.24754551       6.43666940       2.91750000
Te       2.24245668       2.09565981       5.25150000
Te       0.00631717       5.38883950       6.41850000
Te       0.00122834       1.04782990       8.75250000
Te       0.00631717       5.38883950      11.08650000
Ce      -0.01810081       3.66740466       2.91750000
Ce       2.26687466       3.81709465       8.75250000
Au       2.21821417       0.52391495       2.91750000
Au       0.03055968       6.96058436       8.75250000
Tl       2.24877385       7.48449931       0.00000000
Tl       2.24877385       7.48449931       5.83500000
8
Lattice="4.81 0.0 0.0 0.0 4.75 0.0 0.0 0.0 9.07" Properties=species:S:1:pos:R:3 wyckoff_letters="_JSON [\"e\", \"t\", \"t\", \"b\", \"g\", \"d\", \"q\", \"q\"]" formula=Gd2(CdSn)3 source="Cd Gd Sn | 8 |" target="A3B3C2 Cd Gd Sn | Cd3Gd2Sn3 | SG 47 Pmmm | OX: CN:18;18;18;18;18;18 NN:3.18;3.18;3.23;3.23;3.23;3.18 NP:Cd-Cd:3.18;Cd-Gd:3.34;Cd-Sn:3.19;Gd-Gd:4.39;Gd-Sn:3.23;Sn-Sn:3.35 WP:e:1;t:2;q:2;b:1;d:1;g:1 | 4.81 4.75 9.07 90.0 90.0 90.0 | Cd e 0.50 0.00 0.00 Cd t 0.50 0.50 0.24 Cd t 0.50 0.50 0.76 Sn b 0.00 0.50 0.00 Sn g 0.50 0.00 0.50 Sn d 0.00 0.50 0.50 Gd q 0.00 0.00 0.26 Gd q 0.00 0.00 0.74" pbc="T T T"
Cd       2.40500000       0.00000000       0.00000000
Cd       2.40500000       2.37500000       2.17680000
Cd       2.40500000       2.37500000       6.89320000
Sn       0.00000000       2.37500000       0.00000000
Sn       2.40500000       0.00000000       4.53500000
Sn       0.00000000       2.37500000       4.53500000
Gd       0.00000000       0.00000000       2.35820000
Gd       0.00000000       0.00000000       6.71180000
18
Lattice="3.83 0.0 0.0 0.0 3.83 0.0 0.0 0.0 19.82" Properties=species:S:1:pos:R:3 wyckoff_letters="_JSON [\"i\", \"i\", \"h\", \"g\", \"g\", \"h\", \"i\", \"i\", \"h\", \"i\", \"i\", \"b\", \"i\", \"i\", \"h\", \"a\", \"g\", \"g\"]" formula=DyHo2Fe7P8 source="Dy Fe Ho P | 20 |" target="A8B8C3D Dy Fe Ho P | DyHo3HoP8 | SG 123 P4/mmm | OX:+3;+3;+3;+3;-3;-3 CN:38;38;38;38;34;34 NN:2.97;2.98;2.21;2.97;2.21;2.21 NP:Dy-Dy:3.83;Dy-Ho:3.80;Dy-P:2.97;Fe-Fe:2.71;Fe-Ho:3.29;Fe-P:2.21;Ho-Ho:3.83;Ho-P:2.97;P-P:2.47 WP:a:1;b:1;h:2;g:2;h:2;i:8 | 3.83 3.83 19.82 90.0 90.0 90.0 | P i 0.50 0.00 0.12 P i 0.00 0.50 0.12 P h 0.50 0.50 0.32 P g 0.00 0.00 0.44 P g 0.00 0.00 0.56 P h 0.50 0.50 0.68 P i 0.50 0.00 0.88 P i 0.00 0.50 0.88 Fe h 0.50 0.50 0.12 Fe i 0.50 0.00 0.25 Fe i 0.00 0.50 0.25 Fe b 0.00 0.00 0.50 Fe i 0.50 0.00 0.75 Fe i 0.00 0.50 0.75 Fe h 0.50 0.50 0.88 Dy a 0.00 0.00 0.00 Ho g 0.00 0.00 0.25 Ho g 0.00 0.00 0.75" pbc="T T T"
P        1.91500000       0.00000000       2.37840000
P        0.00000000       1.91500000       2.37840000
P        1.91500000       1.91500000       6.34240000
P        0.00000000       0.00000000       8.72080000
P        0.00000000       0.00000000      11.09920000
P        1.91500000       1.91500000      13.47760000
P        1.91500000       0.00000000      17.44160000
P        0.00000000       1.91500000      17.44160000
Fe       1.91500000       1.91500000       2.37840000
Fe       1.91500000       0.00000000       4.95500000
Fe       0.00000000       1.91500000       4.95500000
Fe       0.00000000       0.00000000       9.91000000
Fe       1.91500000       0.00000000      14.86500000
Fe       0.00000000       1.91500000      14.86500000
Fe       1.91500000       1.91500000      17.44160000
Dy       0.00000000       0.00000000       0.00000000
Ho       0.00000000       0.00000000       4.95500000
Ho       0.00000000       0.00000000      14.86500000
30
Lattice="7.65 0.0 0.0 6.816199910041015 3.473027323007533 0.0 1.8087831985421936 0.43425042575097295 12.391151274534847" Properties=species:S:1:pos:R:3 wyckoff_letters="_JSON [\"i\", \"i\", \"i\", \"i\", \"i\", \"i\", \"i\", \"i\", \"i\", \"i\", \"i\", \"i\", \"c\", \"i\", \"i\", \"i\", \"i\", \"i\", \"i\", \"i\", \"i\", \"i\", \"i\", \"i\", \"i\", \"i\", \"i\", \"i\", \"i\", \"a\"]" formula=Ca4PuNi10(B2C)5 source="B C Ca Ni Pu | 30 |" target="A10B10C5D4E B C Ca Ni Pu | Ca4Ni10PrB10C5 | SG 12 C2/m | OX: CN:43;50;50;42;42;48 NN:1.50;1.50;1.50;2.55;2.09;2.53 NP:B-B:3.00;B-C:1.50;B-Ca:2.93;B-Ni:2.07;B-Pu:2.93;C-C:3.56;C-Ca:2.55;C-Ni:3.09;C-Pu:2.53;Ca-Ca:3.59;Ca-Ni:3.11;Ca-Pu:3.60;Ni-Ni:2.54;Ni-Pu:3.13;Pu-Pu:3.59 WP:i:10;c:1;i:4;i:4;i:10;a:1 | 7.65 7.65 12.53 81.7 81.7 27.0 | B i 0.34 0.34 0.01 B i 0.46 0.46 0.19 B i 0.14 0.14 0.21 B i 0.26 0.26 0.39 B i 0.94 0.94 0.41 B i 0.06 0.06 0.59 B i 0.74 0.74 0.61 B i 0.86 0.86 0.79 B i 0.54 0.54 0.81 B i 0.66 0.66 0.99 C i 0.40 0.40 0.10 C i 0.20 0.20 0.30 C c 0.00 0.00 0.50 C i 0.80 0.80 0.70 C i 0.60 0.60 0.90 Ca i 0.80 0.80 0.20 Ca i 0.60 0.60 0.40 Ca i 0.40 0.40 0.60 Ca i 0.20 0.20 0.80 Ni i 0.20 0.20 0.05 Ni i 0.60 0.60 0.15 Ni i 0.00 0.00 0.25 Ni i 0.40 0.40 0.35 Ni i 0.80 0.80 0.45 Ni i 0.20 0.20 0.55 Ni i 0.60 0.60 0.65 Ni i 1.00 1.00 0.75 Ni i 0.40 0.40 0.85 Ni i 0.80 0.80 0.95 Pu a 0.00 0.00 0.00" pbc="T T T"
B        4.93659580       1.18517179       0.12391151
B        6.99812077       1.68010015       2.35431874
B        2.40511246       0.57741641       2.60214177
B        4.46663742       1.07234477       4.83254900
B       14.33982903       3.44268836       5.08037202
B        1.93515408       0.46458939       7.31077925
B       11.80834568       2.83493298       7.55860228
B       13.86987065       3.32986133       9.78900951
B        9.27686234       2.22717760      10.03683253
B       11.33838731       2.72210595      12.26723976
C        5.96735828       1.43263597       1.23911513
C        3.43587494       0.82488059       3.71734538
C        0.90439160       0.21712521       6.19557564
C       12.83910817       3.08239716       8.67380589
C       10.30762482       2.47464178      11.15203615
Ca      11.93471657       2.86527194       2.47823025
Ca       9.40323323       2.25751656       4.95646051
Ca       6.87174988       1.64976118       7.43469076
Ca       4.34026654       1.04200581       9.91292102
Ni       2.98367914       0.71631799       0.61955756
Ni       8.95103743       2.14895396       1.85867269
Ni       0.45219580       0.10856261       3.09778782
Ni       6.41955408       1.54119858       4.33690295
Ni      12.38691237       2.97383455       5.57601807
Ni       3.88807074       0.93344320       6.81513320
Ni       9.85542903       2.36607917       8.05424833
Ni      15.82278731       3.79871514       9.29336346
Ni       7.32394568       1.75832379      10.53247858
Ni      13.29130397       3.19095976      11.77159371
Pu       0.00000000       0.00000000       0.00000000
6
Lattice="4.14 0.0 0.0 -2.069999999999999 3.585345171667576 0.0 0.0 0.0 7.79" Properties=species:S:1:pos:R:3 wyckoff_letters="_JSON [\"d\", \"d\", \"a\", \"d\", \"d\", \"b\"]" formula=NdU(PIr)2 source="Ir Nd P U | 6 |" target="A2B2CD Ir Nd P U | Ir2NdUP2 | SG 164 P-3m1 | OX: CN:23;20;20;23 NN:2.40;3.09;2.40;3.04 NP:Ir-Ir:4.14;Ir-Nd:3.09;Ir-P:2.40;Ir-U:3.04;Nd-Nd:4.14;Nd-P:3.10;Nd-U:3.90;P-P:4.14;P-U:3.08;U-U:4.14 WP:d:2;a:1;d:2;b:1 | 4.14 4.14 7.79 90.0 90.0 120.0 | P d 0.33 0.67 0.26 P d 0.67 0.33 0.74 Nd a 0.00 0.00 0.00 Ir d 0.67 0.33 0.27 Ir d 0.33 0.67 0.73 U b 0.00 0.00 0.50" pbc="T T T"
P       -0.02070000       2.40218127       2.02540000
P        2.09070000       1.18316391       5.76460000
Nd       0.00000000       0.00000000       0.00000000
Ir       2.09070000       1.18316391       2.10330000
Ir      -0.02070000       2.40218127       5.68670000
U        0.00000000       0.00000000       3.89500000
20
Lattice="8.15 0.0 0.0 -0.5401322882599996 8.132081966580207 0.0 1.9070680459552967 2.0379373535796215 5.050029981196263" Properties=species:S:1:pos:R:3 wyckoff_letters="_JSON [\"f\", \"e\", \"e\", \"e\", \"f\", \"f\", \"e\", \"e\", \"e\", \"f\", \"f\", \"f\", \"f\", \"f\", \"e\", \"e\", \"f\", \"f\", \"f\", \"f\"]" formula=Tb2Si5PdRh2 source="Pd Rh Si Tb | 20 |" target="A5B2C2D Pd Rh Si Tb | Pd2Rh4Tb4Si10 | SG 15 C2/c | OX: CN:30;33;28;34;24 NN:2.48;2.38;2.41;2.37;2.99 NP:Pd-Pd:2.88;Pd-Rh:4.48;Pd-Si:2.48;Pd-Tb:3.28;Rh-Rh:3.31;Rh-Si:2.38;Rh-Tb:3.12;Si-Si:2.50;Si-Tb:2.99;Tb-Tb:4.00 WP:e:2;f:4;e:6;f:4;f:4 | 8.15 8.15 5.77 70.7 70.7 93.8 | Si f 0.74 0.94 0.16 Si e 0.78 0.22 0.25 Si e 0.51 0.49 0.25 Si e 0.21 0.79 0.25 Si f 0.06 0.26 0.34 Si f 0.94 0.74 0.66 Si e 0.79 0.21 0.75 Si e 0.49 0.51 0.75 Si e 0.22 0.78 0.75 Si f 0.26 0.06 0.84 Rh f 0.26 0.54 0.13 Rh f 0.46 0.74 0.37 Rh f 0.54 0.26 0.63 Rh f 0.74 0.46 0.87 Pd e 0.00 1.00 0.25 Pd e 1.00 0.00 0.75 Tb f 0.40 0.13 0.24 Tb f 0.87 0.60 0.26 Tb f 0.13 0.40 0.74 Tb f 0.60 0.87 0.76" pbc="T T T"
Si       5.82840654       7.97022703       0.80800480
Si       6.71493791       2.29854237       1.26250750
Si       4.36860219       4.49420450       1.26250750
Si       1.76156250       6.93382909       1.26250750
Si       0.99696874       2.80724001       1.71701019
Si       8.51996702       7.36277931       3.33301979
Si       7.75537325       3.23619023       3.78752249
Si       5.14833357       5.67581482       3.78752249
Si       2.80199785       7.87147695       3.78752249
Si       3.68852922       2.19979230       4.24202518
Rh       2.07524741       4.65625612       0.65650390
Rh       4.05491728       6.77177748       1.86851109
Rh       5.46201847       3.39824184       3.18151889
Rh       7.44168835       5.51376320       4.39352608
Pd      -0.06336528       8.64156630       1.26250750
Pd       9.58030103       1.52845302       3.78752249
Tb       3.64747913       1.54627562       1.21200720
Tb       7.26225832       5.40911289       1.31300780
Tb       2.25467744       4.76090643       3.73702219
Tb       5.86945662       8.62374370       3.83802279
10
Lattice="4.3 0.0 0.0 0.0 7.46 0.0 -1.8616874163055237 -0.7082133662241966 9.462634611558826" Properties=species:S:1:pos:R:3 wyckoff_letters="_JSON [\"a\", \"i\", \"i\", \"i\", \"i\", \"c\", \"i\", \"i\", \"i\", \"i\"]" formula=Th4SiTe5 source="Si Te Th | 10 |" target="A5B4C Si Te Th | Th4SiTe5 | SG 12 C2/m | OX: CN:18;16;16;15 NN:2.78;3.18;3.15;2.78 NP:Si-Si:4.30;Si-Te:4.44;Si-Th:2.78;Te-Te:4.30;Te-Th:3.12;Th-Th:3.85 WP:a:1;c:1;i:4;i:4 | 4.30 7.46 9.67 94.2 101.1 90.0 | Si a 0.00 0.00 0.00 Te i 0.67 0.44 0.33 Te i 0.67 0.93 0.34 Te i 0.33 0.07 0.66 Te i 0.33 0.56 0.67 Te c 1.00 0.50 1.00 Th i 0.12 0.76 0.23 Th i 0.22 0.26 0.44 Th i 0.78 0.74 0.56 Th i 0.88 0.24 0.77" pbc="T T T"
Si       0.00000000       0.00000000       0.00000000
Te       2.26664315       3.04868959       3.12266942
Te       2.24802628       6.69700746       3.21729577
Te       0.19028631       0.05477918       6.24533884
Te       0.17166943       3.70309704       6.33996519
Te       2.43831258       3.02178663       9.46263461
Th       0.08781189       5.50671093       2.17640596
Th       0.12685754       1.62798612       4.16355923
Th       2.31145505       5.12380051       5.29907538
Th       2.35050069       1.24507571       7.28622865
26
Lattice="7.65 0.0 0.0 -1.9554562657649281 7.901632160046472 0.0 -2.0921007574941233 -2.8716092504861503 7.3792326655970735" Properties=species:S:1:pos:R:3 wyckoff_letters="_JSON [\"i\", \"i\", \"i\", \"i\", \"i\", \"i\", \"i\", \"i\", \"i\", \"i\", \"i\", \"i\", \"i\", \"i\", \"i\", \"i\", \"i\", \"i\", \"i\", \"i\", \"i\", \"i\", \"i\", \"i\", \"i\", \"i\"]" formula=CsGaGe3O8 source="Cs Ga Ge O | 26 |" target="A8B3CD Cs Ga Ge O | Cs2Ga2Ge6O16 | SG 2 P-1 | OX:+1;+3;+4;-2 CN:35;36;33;31 NN:3.11;1.85;1.76;1.77 NP:Cs-Cs:4.76;Cs-Ga:4.07;Cs-Ge:4.11;Cs-O:3.11;Ga-Ga:4.10;Ga-Ge:3.17;Ga-O:1.85;Ge-Ge:3.15;Ge-O:1.75;O-O:2.74 WP:i:2;i:2;i:6;i:16 | 7.65 8.14 8.19 106.2 104.8 103.9 | O i 0.39 0.28 0.03 O i 0.26 0.64 0.10 O i 0.99 0.83 0.14 O i 0.74 0.20 0.18 O i 0.74 0.57 0.24 O i 0.40 0.03 0.30 O i 0.76 0.94 0.36 O i 0.23 0.74 0.44 O i 0.77 0.26 0.56 O i 0.24 0.06 0.64 O i 0.60 0.97 0.70 O i 0.26 0.43 0.76 O i 0.26 0.80 0.82 O i 0.01 0.17 0.86 O i 0.74 0.36 0.90 O i 0.61 0.72 0.97 Ga i 0.65 0.08 0.34 Ga i 0.35 0.92 0.66 Ge i 0.78 0.32 0.07 Ge i 0.22 0.84 0.23 Ge i 0.65 0.64 0.30 Ge i 0.35 0.36 0.70 Ge i 0.78 0.16 0.77 Ge i 0.22 0.68 0.93 Cs i 0.17 0.31 0.32 Cs i 0.83 0.69 0.68" pbc="T T T"
O        2.37320922       2.12630873       0.22137698
O        0.52829791       4.76988366       0.73792327
O        5.65757719       6.15632940       1.03309257
O        4.89333061       1.06343677       1.32826188
O        4.04428575       3.81474411       1.77101584
O        2.37370608      -0.62443381       2.21376980
O        3.22271484       6.39375490       2.65652376
O       -0.60806197       4.58369973       3.24686237
O        4.21050495       0.44632318       4.13237029
O        0.37972814      -1.36373199       4.72270891
O        1.22873689       5.65445672       5.16546287
O       -0.44184277       1.21527880       5.60821683
O       -1.29088763       3.96658614       6.05097079
O       -2.05513422      -1.12630649       6.34614009
O        3.07414506       0.26013925       6.64130940
O        1.22923375       2.90371418       7.15785569
Ga       4.10474924      -0.34421657       2.50893911
Ga      -0.50230626       5.37423948       4.87029356
Ge       5.19480694       2.32750964       0.51654629
Ge      -0.44076644       5.97690089       1.69722351
Ge       3.09337776       4.19556181       2.21376980
Ge       0.50906521       0.83446110       5.16546287
Ge       4.04320941      -0.94687798       5.68200915
Ge      -1.59236397       2.70251327       6.86268638
Cs       0.02483632       1.53059101       2.36135445
Cs       3.57760666       3.49943190       5.01787821
7
Lattice="3.91 0.0 0.0 0.0 4.3 0.0 -1.9463013753541296 -2.1656588616748524 8.737615959238758" Properties=species:S:1:pos:R:3 wyckoff_letters="_JSON [\"i\", \"j\", \"j\", \"i\", \"j\", \"j\", \"c\"]" formula=Ce2PaSi4 source="Ce Pm Si | 7 |" target="A4B2C Ce Pm Si | Ce2LaSi4 | SG 71 Immm | OX: CN:19;19;25;31 NN:2.89;3.12;2.37;2.41 NP:Ce-Ce:3.91;Ce-Pm:3.75;Ce-Si:2.89;Rh-Pm:2.92;Si-Si:2.37;Si-Si:2.41 WP:j:2;c:1;i:2;j:2 | 3.91 4.30 9.21 103.6 102.2 90.0 | Si i 0.07 0.57 0.13 Si j 0.65 0.65 0.30 Si j 0.35 0.35 0.70 Si i 0.93 0.43 0.87 Ce j 0.18 0.18 0.37 Ce j 0.82 0.82 0.63 Pa c 0.50 1.00 1.00" pbc="T T T"
Si       0.02068082       2.16946435       1.13589007
Si       1.95760959       2.14530234       2.62128479
Si       0.00608904      -0.01096120       6.11633117
Si       1.94301780      -0.03512321       7.60172588
Ce      -0.01633151      -0.02729378       3.23291790
Ce       1.98003013       2.16163492       5.50469805
Pa       0.00869862       2.13434114       8.73761596
6
Lattice="4.38 0.0 0.0 -2.189999999999999 3.7931912685758413 0.0 0.0 0.0 7.96" Properties=species:S:1:pos:R:3 wyckoff_letters="_JSON [\"a\", \"d\", \"d\", \"b\", \"d\", \"d\"]" formula=KZn(NiSb)2 source="K Ni Sb Zn | 6 |" target="A2B2CD K Ni Sb Zn | KNi2ZnSb2 | SG 164 P-3m1 | OX: CN:20;20;19;20 NN:3.60;2.45;2.45;2.59 NP:K-K:4.38;K-Ni:3.98;K-Sb:3.60;K-Zn:3.60;Ni-Ni:3.10;Ni-Sb:2.45;Ni-Zn:2.59;Sb-Sb:4.38;Sb-Zn:2.84;Zn-Zn:4.38 WP:a:1;d:2;d:2;b:1 | 4.38 4.38 7.96 90.0 90.0 120.0 | K a 0.00 0.00 0.00 Ni d 0.67 0.33 0.11 Ni d 0.33 0.67 0.89 Zn b 0.00 0.00 0.50 Sb d 0.33 0.67 0.30 Sb d 0.67 0.33 0.70" pbc="T T T"
K        0.00000000       0.00000000       0.00000000
Ni       2.21190000       1.25175312       0.87560000
Ni      -0.02190000       2.54143815       7.08440000
Zn       0.00000000       0.00000000       3.98000000
Sb      -0.02190000       2.54143815       2.38800000
Sb       2.21190000       1.25175312       5.57200000
9
Lattice="7.67 0.0 0.0 -3.834999999999998 6.642414847026645 0.0 0.0 0.0 4.15" Properties=species:S:1:pos:R:3 wyckoff_letters="_JSON [\"a\", \"f\", \"f\", \"f\", \"d\", \"d\", \"g\", \"g\", \"g\"]" formula=LiNd3Pt2Pb3 source="Li Nd Pb Pt | 9 |" target="A3B3C2D Li Nd Pb Pt | LiNd3Pb3Pt2 | SG 189 P-62m | OX: CN:26;16;18;23 NN:2.94;3.08;2.94;2.94 NP:Li-Li:4.15;Li-Nd:3.43;Li-Pb:2.94;Li-Pt:4.95;Nd-Nd:3.98;Nd-Pb:3.28;Nd-Pt:3.08;Pb-Pb:3.42;Pb-Pt:2.94;Pt-Pt:4.15 WP:a:1;f:3;g:3;d:2 | 7.67 7.67 4.15 90.0 90.0 120.0 | Li a 0.00 0.00 0.00 Nd f 1.00 0.41 0.00 Nd f 0.59 0.59 0.00 Nd f 0.41 1.00 0.00 Pt d 0.67 0.33 0.50 Pt d 0.33 0.67 0.50 Pb g 0.26 0.26 0.50 Pb g 1.00 0.74 0.50 Pb g 0.74 1.00 0.50" pbc="T T T"
Li       0.00000000       0.00000000       0.00000000
Nd       6.09765000       2.72339009       0.00000000
Nd       2.26265000       3.91902476       0.00000000
Nd      -0.69030000       6.64241485       0.00000000
Pt       3.87335000       2.19199690       2.07500000
Pt      -0.03835000       4.45041795       2.07500000
Pb       0.99710000       1.72702786       2.07500000
Pb       4.83210000       4.91538699       2.07500000
Pb       1.84080000       6.64241485       2.07500000
50
Lattice="11.41 0.0 0.0 9.052161612722994 6.9459679049895025 0.0 1.6757968040818794 0.5688563621352282 8.936453855455598" Properties=species:S:1:pos:R:3 wyckoff_letters="_JSON [\"f\", \"f\", \"f\", \"f\", \"f\", \"f\", \"f\", \"f\", \"f\", \"f\", \"f\", \"f\", \"f\", \"f\", \"f\", \"f\", \"f\", \"f\", \"f\", \"f\", \"f\", \"f\", \"f\", \"f\", \"f\", \"f\", \"f\", \"f\", \"f\", \"f\", \"f\", \"f\", \"f\", \"f\", \"f\", \"f\", \"e\", \"e\", \"f\", \"f\", \"f\", \"f\", \"f\", \"e\", \"f\", \"f\", \"e\", \"f\", \"e\", \"e\"]" formula=K2RbFe3P4ClO14 source="Cl Fe K O P Rb | 50 |" target="A14B4C3D2EF Cl Fe K O P Rb | Fe6K4Rb2Cl2O28P8 | SG 15 C2/c | OX:-1;+2;+2;+1;-2;+5;+1 CN:34;30;32;35;29;31;34 NN:2.52;1.97;2.04;2.81;1.56;1.50;3.10 NP:Cl-Fe:2.52;Cl-K:3.16;Cl-O:3.14;Cl-P:4.24;Cl-Rb:3.58;Fe-Fe:3.47;Fe-K:4.06;Fe-O:1.98;Fe-P:3.15;Fe-Rb:4.12;K-K:4.59;K-O:2.84;K-P:3.52;K-Rb:4.24;O-O:2.42;O-P:1.50;O-Rb:3.10;P-P:2.99;P-Rb:3.58 WP:e:2;f:4;f:4;e:2;f:28;f:8;e:2 | 11.41 11.41 9.11 79.4 79.4 37.5 | O f 0.46 0.86 0.01 O f 0.85 0.85 0.05 O f 0.93 0.93 0.16 O f 0.98 0.32 0.17 O f 0.59 0.09 0.21 O f 0.57 0.72 0.22 O f 0.05 0.63 0.24 O f 0.37 0.95 0.26 O f 0.28 0.43 0.28 O f 0.91 0.41 0.29 O f 0.68 0.02 0.33 O f 0.07 0.07 0.34 O f 0.15 0.15 0.45 O f 0.14 0.54 0.49 O f 0.86 0.46 0.51 O f 0.85 0.85 0.55 O f 0.93 0.93 0.66 O f 0.32 0.98 0.67 O f 0.09 0.59 0.71 O f 0.72 0.57 0.72 O f 0.63 0.05 0.74 O f 0.95 0.37 0.76 O f 0.43 0.28 0.78 O f 0.41 0.91 0.79 O f 0.02 0.68 0.83 O f 0.07 0.07 0.84 O f 0.15 0.15 0.95 O f 0.54 0.14 0.99 P f 0.69 0.99 0.17 P f 0.56 0.84 0.18 P f 0.16 0.44 0.32 P f 0.01 0.31 0.33 P f 0.99 0.69 0.67 P f 0.84 0.56 0.68 P f 0.44 0.16 0.82 P f 0.31 0.01 0.83 Cl e 0.13 0.87 0.25 Cl e 0.87 0.13 0.75 K f 0.25 0.32 0.04 K f 0.68 0.75 0.46 K f 0.32 0.25 0.54 K f 0.75 0.68 0.96 Fe f 0.81 0.16 0.07 Fe e 0.78 0.22 0.25 Fe f 0.84 0.19 0.43 Fe f 0.16 0.81 0.57 Fe e 0.22 0.78 0.75 Fe f 0.19 0.84 0.93 Rb e 0.45 0.55 0.25 Rb e 0.55 0.45 0.75" pbc="T T T"
O       13.05021695       5.97922096       0.08936454
O       17.47662721       5.93251554       0.44682269
O       19.29793779       6.55076717       1.42983262
O       14.36337717       2.31941531       1.51919716
O        7.89851187       0.74459695       1.87665531
O       13.38993166       5.12624529       1.96601985
O        6.67555305       4.51248531       2.14474893
O       13.25696070       6.74657216       2.32347800
O        7.55645260       3.14604598       2.50220708
O       14.58046733       3.01281519       2.59157162
O        8.49285618       0.32664196       2.94902977
O        2.00212223       0.67962892       3.03839431
O        3.82343280       1.29788055       4.02140423
O        7.30670770       4.02956229       4.37886239
O       14.83125071       3.48526198       4.55759147
O       18.31452561       6.21694372       4.91504962
O       20.13583619       6.83519535       5.89805954
O       13.64510224       7.18818231       5.98742408
O        7.55749108       4.50200908       6.34488224
O       14.58150582       4.36877829       6.43424678
O        8.88099772       0.76825210       6.61297585
O       15.46240537       3.00233896       6.79170493
O        8.74802676       2.38857898       6.97043401
O       14.23944654       6.77022732       7.05979855
O        7.77458124       5.19540896       7.41725670
O        2.84002063       0.96405710       7.50662124
O        4.66133121       1.58230873       8.48963116
O        9.08774146       1.53560331       8.84708932
P       17.11942545       6.97321381       1.51919716
P       14.29505918       5.93700719       1.60856169
P        6.34480609       3.23825991       2.85966523
P        3.47328305       2.34097265       2.94902977
P       18.66467537       5.17385162       5.98742408
P       15.79315233       4.27656435       6.07678862
P        7.84289924       1.57781708       7.32789216
P        5.01853296       0.54161046       7.41725670
Cl       9.77762980       6.18520617       2.23411346
Cl      12.36032861       1.32961810       6.70234039
K        5.81622359       2.24546398       0.35745815
K       15.31878774       5.47114986       4.11076877
K        6.81917068       2.04367441       4.82568508
K       16.32173483       5.26936028       8.57899570
Fe      10.80775163       1.15117481       0.62555177
Fe      11.31022476       1.67032703       2.23411346
Fe      12.02490333       1.56434214       3.84267516
Fe      10.11305508       5.95048213       5.09377870
Fe      10.82773366       5.84449724       6.70234039
Fe      11.33020678       6.36364946       8.31090209
Rb      10.53213809       3.96249644       2.23411346
Rb      11.60582033       3.55232783       6.70234039
26
Lattice="10.89 0.0 0.0 6.121087984809703 9.006907453849978 0.0 6.121087984809703 3.240949258817839 8.403608140792048" Properties=species:S:1:pos:R:3 wyckoff_letters="_JSON [\"b\", \"b\", \"b\", \"b\", \"b\", \"b\", \"b\", \"b\", \"b\", \"b\", \"b\", \"b\", \"b\", \"b\", \"b\", \"b\", \"b\", \"b\", \"a\", \"b\", \"b\", \"b\", \"b\", \"b\", \"b\", \"a\"]" formula=RbNd(NbBr3)6 source="Br Nb Nd Rb | 26 |" target="A18B6CD Br Nb Nd Rb | Nb6NdRbBr18 | SG 146 R3 | OX:-1;+3;+2;+1 CN:14;12;14;12 NN:2.71;2.62;2.91;3.79 NP:Br-Br:3.50;Br-Nb:2.61;Br-Nd:2.91;Br-Rb:3.79;Nb-Nb:2.96 WP:b:18;b:6;a:1;a:1 | 10.89 10.89 10.89 55.8 55.8 55.8 | Br b 0.30 0.83 0.04 Br b 0.63 0.77 0.09 Br b 0.57 0.44 0.16 Br b 0.96 0.70 0.17 Br b 0.91 0.37 0.22 Br b 0.83 0.04 0.30 Br b 0.22 0.91 0.37 Br b 0.56 0.83 0.43 Br b 0.16 0.57 0.44 Br b 0.83 0.43 0.56 Br b 0.44 0.16 0.57 Br b 0.78 0.09 0.63 Br b 0.17 0.96 0.70 Br b 0.09 0.63 0.77 Br b 0.04 0.30 0.83 Br b 0.43 0.56 0.83 Br b 0.37 0.22 0.91 Br b 0.70 0.17 0.96 Rb a 0.28 0.28 0.28 Nb b 0.42 0.64 0.31 Nb b 0.69 0.59 0.36 Nb b 0.64 0.31 0.42 Nb b 0.36 0.69 0.59 Nb b 0.31 0.42 0.64 Nb b 0.59 0.36 0.69 Nd a 0.00 0.00 0.00" pbc="T T T"
Br       8.59234655       7.60537116       0.33614433
Br      12.12483567       7.22700417       0.75632473
Br       9.87995279       4.48159116       1.34457730
Br      15.77974655       6.85579659       1.42861338
Br      13.52134191       4.04556459       1.84879379
Br      11.11986991       1.33256108       2.52108244
Br      10.23079262       9.39543701       3.10933501
Br      13.81097086       8.86934137       3.61355150
Br       7.92469886       6.55995492       3.69758758
Br      15.09857710       5.68790179       4.70602056
Br       9.25999423       3.28844627       4.79005664
Br      12.90138335       2.85241970       5.29427313
Br      12.01230605      10.91529564       5.88252570
Br       9.54962318       8.16988263       6.47077827
Br       7.35242942       5.39206012       6.97499476
Br      13.19101230       7.73385606       6.97499476
Br      10.94612942       4.93078347       7.64728341
Br      14.53982942       4.64248556       8.06746382
Rb       6.47700927       3.42939988       2.35301028
Nb      10.38883359       6.76911504       2.60511852
Nb      13.32913359       6.48081713       3.02529893
Nb      11.43799423       4.15334000       3.52951542
Nb      11.75539262       8.12692621       4.95812880
Nb       9.86425326       5.85710866       5.37830921
Nb      12.85224238       5.47874167       5.79848962
Nd       0.00000000       0.00000000       0.00000000
22
Lattice="6.86 0.0 0.0 -0.2513758417269752 6.855392781321582 0.0 -0.2513758417269752 -0.2607623144397536 6.85043160695471" Properties=species:S:1:pos:R:3 wyckoff_letters="_JSON [\"f\", \"f\", \"f\", \"f\", \"f\", \"f\", \"f\", \"f\", \"f\", \"f\", \"f\", \"f\", \"e\", \"e\", \"e\", \"e\", \"e\", \"e\", \"b\", \"b\", \"a\", \"a\"]" formula=Sr3TmRhO6 source="O Rh Sr Tm | 22 |" target="A6B4CD O Rh Sr Tm | Rh2Sr8Tm2O12 | SG 167 R-3c | OX:-2;+3;+2;+3 CN:40;38;35;35 NN:2.08;2.08;2.57;2.17 NP:O-O:2.93;O-Rh:2.08;O-Sr:2.57;O-Tm:2.17;Rh-Sr:3.24;Rh-Tm:2.80;Sr-Sr:3.64;Sr-Tm:3.60 WP:f:12;b:2;e:6;a:2 | 6.86 6.86 6.86 92.1 92.1 92.1 | O f 0.90 0.71 0.04 O f 0.29 0.96 0.10 O f 0.40 0.54 0.21 O f 0.96 0.10 0.29 O f 0.54 0.21 0.40 O f 0.79 0.60 0.46 O f 0.21 0.40 0.54 O f 0.46 0.79 0.60 O f 0.04 0.90 0.71 O f 0.60 0.46 0.79 O f 0.71 0.04 0.90 O f 0.10 0.29 0.96 Sr e 0.75 0.38 0.12 Sr e 0.62 0.88 0.25 Sr e 0.12 0.75 0.38 Sr e 0.88 0.25 0.62 Sr e 0.38 0.12 0.75 Sr e 0.25 0.62 0.88 Rh b 0.00 0.00 0.00 Rh b 0.50 0.50 0.50 Tm a 0.25 0.25 0.25 Tm a 0.75 0.75 0.75" pbc="T T T"
O        5.98546812       4.85689838       0.27401726
O        1.72294161       6.55510084       0.68504316
O        2.55546812       3.64715202       1.43859064
O        6.48756342       0.60991821       1.98662517
O        3.55106074       1.33532756       2.74017264
O        5.15294161       3.99328500       3.15119854
O        1.20430671       2.60134546       3.69923307
O        2.80618758       5.25930291       4.11025896
O       -0.13031511       5.98471226       4.86380644
O        3.80178020       2.94747845       5.41184097
O        4.63430671       0.03952963       6.16538845
O        0.37178020       1.73773208       6.57641434
Sr       5.01931208       2.57375778       0.82205179
Sr       3.96914530       5.96755507       1.71260790
Sr       0.53914530       5.04245491       2.60316401
Sr       5.81810302       1.55217556       4.24726760
Sr       2.38810302       0.62707540       5.13782371
Sr       1.33793624       4.02087269       6.02837981
Rh       0.00000000       0.00000000       0.00000000
Rh       3.17862416       3.29731523       3.42521580
Tm       1.58931208       1.64865762       1.71260790
Tm       4.76793624       4.94597285       5.13782371
46
Lattice="3.86 0.0 0.0 0.0 11.87 0.0 0.0 0.0 23.6" Properties=species:S:1:pos:R:3 wyckoff_letters="_JSON [\"a\", \"a\", \"a\", \"a\", \"a\", \"a\", \"a\", \"a\", \"a\", \"a\", \"a\", \"a\", \"a\", \"a\", \"a\", \"a\", \"a\", \"a\", \"a\", \"a\", \"a\", \"a\", \"a\", \"a\", \"a\", \"a\", \"a\", \"a\", \"a\", \"a\", \"a\", \"a\", \"a\", \"a\", \"a\", \"a\", \"a\", \"a\", \"a\", \"a\", \"a\", \"a\", \"a\", \"a\", \"a\", \"a\"]" formula=Cs3(V2S3)4 source="Cs S V | 44 |" target="A12B7C3 Cs S V | Cs6V14S24 | SG 31 Pmn2_1 | OX:+1;-2;+3 CN:21;22;20 NN:3.52;2.28;2.36 NP:Cs-Cs:3.86;Cs-S:3.35;Cs-V:4.22;S-S:3.18;S-V:2.29;V-V:2.66 WP:a:6;a:24;a:14 | 3.86 11.87 23.60 90.0 90.0 90.0 | S a 0.00 0.60 0.02 S a 0.50 0.12 0.08 S a 0.50 0.81 0.11 S a 0.00 0.32 0.17 S a 0.00 1.00 0.20 S a 0.00 0.68 0.24 S a 0.50 0.18 0.26 S a 0.50 0.50 0.30 S a 0.50 0.82 0.33 S a 0.00 0.31 0.39 S a 0.00 0.61 0.42 S a 0.50 0.10 0.48 S a 0.50 0.40 0.52 S a 0.00 0.88 0.58 S a 0.00 0.19 0.61 S a 0.50 0.68 0.67 S a 0.50 0.00 0.70 S a 0.50 0.32 0.74 S a 0.00 0.82 0.76 S a 0.00 0.50 0.80 S a 0.00 0.18 0.83 S a 0.50 0.69 0.89 S a 0.50 0.39 0.92 S a 0.00 0.90 0.98 V a 0.00 0.96 0.08 V a 0.00 0.44 0.10 V a 0.50 0.18 0.18 V a 0.50 0.91 0.24 V a 0.00 0.68 0.32 V a 0.50 0.06 0.40 V a 0.00 0.46 0.41 V a 0.50 0.25 0.50 V a 0.50 0.04 0.58 V a 0.50 0.56 0.60 V a 0.00 0.82 0.68 V a 0.00 0.09 0.74 V a 0.50 0.32 0.82 V a 0.00 0.94 0.90 V a 0.50 0.54 0.91 V a 0.00 0.75 1.00 Cs a 0.50 0.53 0.13 Cs a 0.00 0.04 0.36 Cs a 0.50 0.80 0.48 Cs a 0.00 0.47 0.63 Cs a 0.50 0.96 0.86 Cs a 0.00 0.20 0.98" pbc="T T T"
S        0.00000000       7.12200000       0.47200000
S        1.93000000       1.42440000       1.88800000
S        1.93000000       9.61470000       2.59600000
S        0.00000000       3.79840000       4.01200000
S        0.00000000      11.87000000       4.72000000
S        0.00000000       8.07160000       5.66400000
S        1.93000000       2.13660000       6.13600000
S        1.93000000       5.93500000       7.08000000
S        1.93000000       9.73340000       7.78800000
S        0.00000000       3.67970000       9.20400000
S        0.00000000       7.24070000       9.91200000
S        1.93000000       1.18700000      11.32800000
S        1.93000000       4.74800000      12.27200000
S        0.00000000      10.44560000      13.68800000
S        0.00000000       2.25530000      14.39600000
S        1.93000000       8.07160000      15.81200000
S        1.93000000       0.00000000      16.52000000
S        1.93000000       3.79840000      17.46400000
S        0.00000000       9.73340000      17.93600000
S        0.00000000       5.93500000      18.88000000
S        0.00000000       2.13660000      19.58800000
S        1.93000000       8.19030000      21.00400000
S        1.93000000       4.62930000      21.71200000
S        0.00000000      10.68300000      23.12800000
V        0.00000000      11.39520000       1.88800000
V        0.00000000       5.22280000       2.36000000
V        1.93000000       2.13660000       4.24800000
V        1.93000000      10.80170000       5.66400000
V        0.00000000       8.07160000       7.55200000
V        1.93000000       0.71220000       9.44000000
V        0.00000000       5.46020000       9.67600000
V        1.93000000       2.96750000      11.80000000
V        1.93000000       0.47480000      13.68800000
V        1.93000000       6.64720000      14.16000000
V        0.00000000       9.73340000      16.04800000
V        0.00000000       1.06830000      17.46400000
V        1.93000000       3.79840000      19.35200000
V        0.00000000      11.15780000      21.24000000
V        1.93000000       6.40980000      21.47600000
V        0.00000000       8.90250000      23.60000000
Cs       1.93000000       6.29110000       3.06800000
Cs       0.00000000       0.47480000       8.49600000
Cs       1.93000000       9.49600000      11.32800000
Cs       0.00000000       5.57890000      14.86800000
Cs       1.93000000      11.39520000      20.29600000
Cs       0.00000000       2.37400000      23.12800000
8
Lattice="7.53 0.0 0.0 6.279160240165777 4.156085499399798 0.0 6.279160240165777 1.8898127307303556 3.701574600233088" Properties=species:S:1:pos:R:3 wyckoff_letters="_JSON [\"a\", \"c\", \"c\", \"b\", \"c\", \"c\", \"c\", \"c\"]" formula=ScZn2GaRh4 source="Ga Rh Sc Zn | 8 |" target="A4B2CD Ga Rh Sc Zn | GaRh4ScZn2 | SG 166 R-3m | OX: CN:26;26;26;26 NN:2.62;2.62;2.65;2.64 NP:Ga-Ga:4.35;Ga-Rh:2.62;Ga-Sc:4.35;Ga-Zn:3.07;Rh-Rh:3.02;Rh-Sc:2.65;Rh-Zn:2.64;Sc-Sc:4.35;Sc-Zn:3.02;Zn-Zn:4.27 WP:b:1;c:4;a:1;c:2 | 7.53 7.53 7.53 33.5 33.5 33.5 | Sc a 0.00 0.00 0.00 Zn c 0.25 0.25 0.25 Zn c 0.75 0.75 0.75 Ga b 0.50 0.50 0.50 Rh c 0.13 0.13 0.13 Rh c 0.38 0.38 0.38 Rh c 0.62 0.62 0.62 Rh c 0.87 0.87 0.87" pbc="T T T"
Sc       0.00000000       0.00000000       0.00000000
Zn       5.02208012       1.51147456       0.92539365
Zn      15.06624036       4.53442367       2.77618095
Ga      10.04416024       3.02294912       1.85078730
Rh       2.61148166       0.78596677       0.48120470
Rh       7.63356178       2.29744133       1.40659835
Rh      12.45475870       3.74845690       2.29497625
Rh      17.47683882       5.25993146       3.22036990
17
Lattice="2.83 0.0 0.0 0.0 2.83 0.0 0.0 0.0 19.09" Properties=species:S:1:pos:R:3 wyckoff_letters="_JSON [\"h\", \"h\", \"h\", \"h\", \"h\", \"h\", \"d\", \"c\", \"c\", \"g\", \"g\", \"g\", \"g\", \"g\", \"g\", \"g\", \"g\"]" formula=Al6V(FeCo4)2 source="Al Co Fe V | 20 |" target="A4B2CD Al Co Fe V | Al4Co8Fe2V2 | SG 123 P4/mmm | OX: CN:58;58;58;58 NN:2.49;2.49;2.49;2.45 NP:Al-Al:2.83;Al-Co:2.49;Al-Fe:2.47;Al-V:3.46;Co-Co:2.85;Co-Fe:2.86;Co-V:2.45;Fe-Fe:2.83;Fe-V:4.04;V-V:2.83 WP:h:4;g:8;c:2;d:2 | 2.83 2.83 19.09 90.0 90.0 90.0 | Al h 0.50 0.50 0.08 Al h 0.50 0.50 0.29 Al h 0.50 0.50 0.42 Al h 0.50 0.50 0.58 Al h 0.50 0.50 0.71 Al h 0.50 0.50 0.92 V d 0.50 0.50 0.50 Fe c 0.50 0.50 0.00 Fe c 0.50 0.50 0.50 Co g 0.00 0.00 0.09 Co g 0.00 0.00 0.22 Co g 0.00 0.00 0.32 Co g 0.00 0.00 0.41 Co g 0.00 0.00 0.59 Co g 0.00 0.00 0.68 Co g 0.00 0.00 0.78 Co g 0.00 0.00 0.91" pbc="T T T"
Al       1.41500000       1.41500000       1.52720000
Al       1.41500000       1.41500000       5.53610000
Al       1.41500000       1.41500000       8.01780000
Al       1.41500000       1.41500000      11.07220000
Al       1.41500000       1.41500000      13.55390000
Al       1.41500000       1.41500000      17.56280000
V        1.41500000       1.41500000       9.54500000
Fe       1.41500000       1.41500000       0.00000000
Fe       1.41500000       1.41500000       9.54500000
Co       0.00000000       0.00000000       1.71810000
Co       0.00000000       0.00000000       4.19980000
Co       0.00000000       0.00000000       6.10880000
Co       0.00000000       0.00000000       7.82690000
Co       0.00000000       0.00000000      11.26310000
Co       0.00000000       0.00000000      12.98120000
Co       0.00000000       0.00000000      14.89020000
Co       0.00000000       0.00000000      17.37190000
23
Lattice="8.29 0.0 0.0 4.1450000000000005 7.179350597372995 0.0 4.1450000000000005 2.393116865790999 6.768756655890847" Properties=species:S:1:pos:R:3 wyckoff_letters="_JSON [\"h\", \"h\", \"h\", \"h\", \"h\", \"h\", \"h\", \"h\", \"h\", \"h\", \"h\", \"h\", \"h\", \"e\", \"e\", \"e\", \"e\", \"d\", \"c\", \"e\", \"e\", \"e\", \"e\"]" formula=CrPH13(CI)4 source="C Cr H I P | 22 |" target="A12B4C4DE C Cr H I P | CrC4H12I4P | SG 216 F-43m | OX:-4;+1;-1;+3;+5 CN:31;28;32;38;20 NN:1.10;2.23;1.10;2.25;2.60 NP:C-C:2.93;C-H:1.10;C-I:4.33;C-P:4.78;Cr-H:4.81;Cr-I:2.23;Cr-P:4.92;H-H:1.80;H-I:3.55;H-P:2.41;I-I:4.24;I-P:4.86 WP:e:4;c:1;h:12;e:4;d:1 | 8.29 8.29 8.29 60.0 60.0 60.0 | H h 0.71 0.48 0.09 H h 0.48 0.71 0.09 H h 0.71 0.71 0.09 H h 0.71 0.09 0.48 H h 0.09 0.71 0.48 H h 0.71 0.71 0.48 H h 0.71 0.48 0.71 H h 0.48 0.71 0.71 H h 0.48 0.09 0.71 H h 0.71 0.09 0.71 H h 0.09 0.48 0.71 H h 0.09 0.71 0.71 H h 0.71 0.71 0.71 C e 0.66 0.66 0.03 C e 0.66 0.03 0.66 C e 0.03 0.66 0.66 C e 0.66 0.66 0.66 P d 0.75 0.75 0.75 Cr c 0.75 0.75 0.75 I e 0.14 0.14 0.14 I e 0.59 0.14 0.14 I e 0.14 0.59 0.14 I e 0.14 0.14 0.59" pbc="T T T"
H        8.24855000       3.66146880       0.60918810
H        7.29520000       5.31271944       0.60918810
H        9.20190000       5.31271944       0.60918810
H        8.24855000       1.79483765       3.24900319
H        5.67865000       6.24603502       3.24900319
H       10.81845000       6.24603502       3.24900319
H       10.81845000       5.14520126       4.80581723
H        9.86510000       6.79645190       4.80581723
H        7.29520000       2.34525453       4.80581723
H        9.20190000       2.34525453       4.80581723
H        5.67865000       5.14520126       4.80581723
H        6.63200000       6.79645190       4.80581723
H       11.77180000       6.79645190       4.80581723
C        8.33145000       4.81016490       0.20306270
C        8.33145000       1.79483765       4.46737939
C        5.72010000       6.31782853       4.46737939
C       10.94280000       6.31782853       4.46737939
P       12.43500000       7.17935060       5.07656749
Cr      12.43500000       7.17935060       5.07656749
I        2.32120000       1.34014544       0.94762593
I        6.05170000       1.34014544       0.94762593
I        4.18645000       4.57085321       0.94762593
I        4.18645000       2.41704803       3.99356643
10
Lattice="5.72 0.0 0.0 0.0 5.72 0.0 2.8600000000000003 2.8600000000000003 4.044650788387051" Properties=species:S:1:pos:R:3 wyckoff_letters="_JSON [\"b\", \"a\", \"e\", \"e\", \"e\", \"e\", \"e\", \"e\", \"c\", \"c\"]" formula=BH(Rh3Pb)2 source="B H Pb Rh | 10 |" target="A6B2CD B H Pb Rh | Pb2Rh6BH | SG 225 Fm-3m | OX: CN:44;44;38;32 NN:2.06;1.96;2.84;1.96 NP:B-H:4.05;B-Pb:3.50;B-Rh:2.06;H-Pb:3.51;H-Rh:1.96;Pb-Pb:4.05;Pb-Rh:2.84;Rh-Rh:2.82 WP:a:1;b:1;c:2;e:6 | 5.72 5.72 5.72 60.0 60.0 90.0 | H b 0.50 0.50 0.00 B a 1.00 1.00 0.00 Rh e 0.25 0.75 0.00 Rh e 0.75 0.25 0.00 Rh e 0.75 0.75 0.00 Rh e 0.25 0.75 0.49 Rh e 0.75 0.25 0.51 Rh e 0.25 0.25 1.00 Pb c 0.75 0.25 0.50 Pb c 0.25 0.75 0.50" pbc="T T T"
H        2.86000000       2.86000000       0.00000000
B        5.72000000       5.72000000       0.00000000
Rh       1.43000000       4.29000000       0.00000000
Rh       4.29000000       1.43000000       0.00000000
Rh       4.29000000       4.29000000       0.00000000
Rh       2.83140000       5.69140000       1.98187889
Rh       5.74860000       2.88860000       2.06277190
Rh       4.29000000       4.29000000       4.04465079
Pb       5.72000000       2.86000000       2.02232539
Pb       2.86000000       5.72000000       2.02232539
